 vasp.6.4.2 20Jul23 (build Sep 17 2025 15:35:10) complex

 executed on             LinuxIFC date 2025.10.09  12:27:15

 INCAR:
   YSTEM = CdS Calculation
   PREC = Accurate
   ENCUT = 400
   ISTART = 0
   ICHARG = 2
   ISMEAR = 0
   SIGMA = 0.05
   EDIFF = 1E-6
   NELM = 100
   LREAL = .FALSE.
   GGA = PE
   LWAVE = .FALSE.
   LCHARG = .FALSE.

 POTCAR:    PAW_PBE Cd 06Sep2000
 POTCAR:    PAW_PBE S 06Sep2000
|           W    W    AA    RRRRR   N    N  II  N    N   GGGG   !!!           |
|           W    W   A  A   R    R  NN   N  II  NN   N  G    G  !!!           |
|           W    W  A    A  R    R  N N  N  II  N N  N  G       !!!           |
|           W WW W  AAAAAA  RRRRR   N  N N  II  N  N N  G  GGG   !            |
|           WW  WW  A    A  R   R   N   NN  II  N   NN  G    G                |
|           W    W  A    A  R    R  N    N  II  N    N   GGGG   !!!           |
|     For optimal performance we recommend to set                             |
|       NCORE = 2 up to number-of-cores-per-socket                            |
|     This setting can greatly improve the performance of VASP for DFT.       |
|     The default, NCORE=1 might be grossly inefficient on modern             |
|     multi-core architectures or massively parallel machines. Do your        |
|     Unfortunately you need to use the default for GW and RPA                |
|     calculations (for HF NCORE is supported but not extensively tested      |
|     yet).                                                                   |

   TITEL  = PAW_PBE Cd 06Sep2000
   POMASS =  112.411; ZVAL   =   12.000    mass and valenz
   ENMAX  =  274.336; ENMIN  =  205.752 eV

   TITEL  = PAW_PBE S 06Sep2000
   POMASS =   32.066; ZVAL   =    6.000    mass and valenz
   ENMAX  =  258.689; ENMIN  =  194.016 eV

  PAW_PBE Cd 06Sep2000                  :
  PAW_PBE S 06Sep2000                   :

 POSCAR: Cd S
  positions in direct lattice
 exchange correlation table for  LEXCH =        8
   RHO(1)=    0.500       N(1)  =     2000
   RHO(2)=  100.500       N(2)  =     4000

 ion  position               nearest neighbor table
   1  0.222  0.111  0.250-  51 2.55  63 2.55  59 2.55  50 2.55
   2  0.222  0.778  0.750-  61 2.55  57 2.55  47 2.55  60 2.55
   3  0.111  0.889  0.500-  58 2.55  50 2.55  44 2.55  61 2.55
   4  0.556  0.778  0.250-  49 2.55  48 2.55  45 2.55  70 2.55
   5  0.444  0.889  0.500-  70 2.55  58 2.55  62 2.55  47 2.55
   6  0.556  0.111  0.250-  63 2.55  38 2.55  49 2.55  62 2.55
   7  0.444  0.222  0.000-  64 2.55  52 2.55  68 2.55  63 2.55
   8  0.889  0.444  0.750-  40 2.55  43 2.55  57 2.55  42 2.55
   9  0.778  0.556  0.000-  42 2.55  67 2.55  68 2.55  41 2.55
  10  0.556  0.111  0.750-  65 2.55  40 2.55  47 2.55  64 2.55
  11  0.444  0.222  0.500-  62 2.55  50 2.55  66 2.55  65 2.55
  12  0.556  0.444  0.250-  41 2.55  63 2.55  48 2.55  66 2.55
  13  0.444  0.556  0.000-  56 2.55  71 2.55  68 2.55  48 2.55
  14  0.778  0.222  0.500-  37 2.55  39 2.55  62 2.55  40 2.55
  15  0.889  0.111  0.750-  40 2.55  53 2.55  72 2.55  46 2.55
  16  0.889  0.444  0.250-  38 2.55  41 2.55  55 2.55  39 2.55
  17  0.556  0.444  0.750-  43 2.55  65 2.55  69 2.55  68 2.55
  18  0.778  0.556  0.500-  39 2.55  44 2.55  66 2.55  43 2.55
  19  0.222  0.778  0.250-  59 2.55  55 2.55  49 2.55  58 2.55
  20  0.111  0.222  0.000-  52 2.55  56 2.55  46 2.55  51 2.55
  21  0.778  0.889  0.500-  44 2.55  70 2.55  37 2.55  72 2.55
  22  0.889  0.778  0.750-  72 2.55  43 2.55  61 2.55  67 2.55
  23  0.222  0.111  0.750-  53 2.55  65 2.55  61 2.55  52 2.55
  24  0.111  0.222  0.500-  50 2.55  54 2.55  37 2.55  53 2.55
  25  0.556  0.778  0.750-  47 2.55  69 2.55  72 2.55  71 2.55
  26  0.111  0.889  0.000-  60 2.55  52 2.55  67 2.55  59 2.55
  27  0.889  0.111  0.250-  38 2.55  45 2.55  51 2.55  37 2.55
  28  0.111  0.556  0.000-  56 2.55  60 2.55  42 2.55  55 2.55
  29  0.778  0.889  0.000-  67 2.55  71 2.55  46 2.55  45 2.55
  30  0.889  0.778  0.250-  45 2.55  41 2.55  59 2.55  44 2.55
  31  0.222  0.444  0.750-  53 2.55  57 2.55  69 2.55  56 2.55
  32  0.111  0.556  0.500-  54 2.55  58 2.55  39 2.55  57 2.55
  33  0.778  0.222  0.000-  46 2.55  42 2.55  64 2.55  38 2.55
  34  0.444  0.889  0.000-  71 2.55  60 2.55  64 2.55  49 2.55
  35  0.222  0.444  0.250-  48 2.55  51 2.55  55 2.55  54 2.55
  36  0.444  0.556  0.500-  54 2.55  70 2.55  66 2.55  69 2.55
  37  0.889  0.111  0.438-  14 2.55  21 2.55  24 2.55  27 2.55
  38  0.778  0.222  0.188-  27 2.55  16 2.55   6 2.55  33 2.55
  39  0.889  0.444  0.438-  14 2.55  18 2.55  32 2.55  16 2.55
  40  0.778  0.222  0.688-  15 2.55  10 2.55   8 2.55  14 2.55
  41  0.778  0.556  0.188-  12 2.55  16 2.55  30 2.55   9 2.55
  42  0.889  0.444  0.938-   9 2.55  33 2.55  28 2.55   8 2.55
  43  0.778  0.556  0.688-   8 2.55  17 2.55  22 2.55  18 2.55
  44  0.889  0.778  0.438-  21 2.55  18 2.55   3 2.55  30 2.55
  45  0.778  0.889  0.188-  30 2.55   4 2.55  27 2.55  29 2.55
  46  0.889  0.111  0.938-  33 2.55  29 2.55  20 2.55  15 2.55
  47  0.444  0.889  0.688-  25 2.55   2 2.55  10 2.55   5 2.55
  48  0.444  0.556  0.188-   4 2.55  35 2.55  12 2.55  13 2.55
  49  0.444  0.889  0.188-   4 2.55  19 2.55   6 2.55  34 2.55
  50  0.222  0.111  0.438-  24 2.55  11 2.55   3 2.55   1 2.55
  51  0.111  0.222  0.188-   1 2.55  35 2.55  27 2.55  20 2.55
  52  0.222  0.111  0.938-  20 2.55   7 2.55  26 2.55  23 2.55
  53  0.111  0.222  0.688-  23 2.55  31 2.55  15 2.55  24 2.55
  54  0.222  0.444  0.438-  24 2.55  32 2.55  36 2.55  35 2.55
  55  0.111  0.556  0.188-  19 2.55  35 2.55  16 2.55  28 2.55
  56  0.222  0.444  0.938-  13 2.55  20 2.55  28 2.55  31 2.55
  57  0.111  0.556  0.688-   2 2.55  31 2.55   8 2.55  32 2.55
  58  0.222  0.778  0.438-   3 2.55   5 2.55  32 2.55  19 2.55
  59  0.111  0.889  0.188-  19 2.55   1 2.55  30 2.55  26 2.55
  60  0.222  0.778  0.938-  26 2.55  28 2.55  34 2.55   2 2.55
  61  0.111  0.889  0.688-   2 2.55  22 2.55  23 2.55   3 2.55
  62  0.556  0.111  0.438-  11 2.55  14 2.55   5 2.55   6 2.55
  63  0.444  0.222  0.188-   6 2.55   1 2.55  12 2.55   7 2.55
  64  0.556  0.111  0.938-   7 2.55  33 2.55  34 2.55  10 2.55
  65  0.444  0.222  0.688-  10 2.55  17 2.55  23 2.55  11 2.55
  66  0.556  0.444  0.438-  11 2.55  18 2.55  36 2.55  12 2.55
  67  0.889  0.778  0.938-  29 2.55   9 2.55  26 2.55  22 2.55
  68  0.556  0.444  0.938-   7 2.55   9 2.55  13 2.55  17 2.55
  69  0.444  0.556  0.688-  25 2.55  31 2.55  17 2.55  36 2.55
  70  0.556  0.778  0.438-   5 2.55  21 2.55  36 2.55   4 2.55
  71  0.556  0.778  0.938-  34 2.55  29 2.55  13 2.55  25 2.55
  72  0.778  0.889  0.688-  22 2.55  25 2.55  15 2.55  21 2.55

  LATTYP: Found a hexagonal cell.
 ALAT       =    12.5065142985
 C/A-ratio  =     1.0841737751

  Lattice vectors:

 A1 = (   6.2532571493, -10.8309590953,   0.0000000000)
 A2 = (   6.2532571493,  10.8309590953,   0.0000000000)
 A3 = (   0.0000000000,   0.0000000000,  13.5592348200)

Analysis of symmetry for initial positions (statically):
 Subroutine PRICEL returns following result:

[...]

  18 primitive cells build up your supercell.

 Routine SETGRP: Setting up the symmetry group for a
 hexagonal supercell.

 Subroutine GETGRP returns: Found 12 space group operations
 (whereof  6 operations were pure point group operations)
 out of a pool of 24 trial point group operations.

The static configuration has the point symmetry C_3v.
 The point group associated with its full space group is C_6v.

Analysis of symmetry for dynamics (positions and initial velocities):
 Subroutine PRICEL returns following result:

  LATTYP: Found a hexagonal cell.
 ALAT       =     4.1688380995
 C/A-ratio  =     1.6262606626

  Lattice vectors:

 A1 = (   2.0844190498,  -3.6103196984,   0.0000000000)
 A2 = (   2.0844190498,   3.6103196984,   0.0000000000)
 A3 = (   0.0000000000,   0.0000000000,   6.7796174100)

  18 primitive cells build up your supercell.

 Routine SETGRP: Setting up the symmetry group for a
 hexagonal supercell.

 Subroutine GETGRP returns: Found 12 space group operations
 (whereof  6 operations were pure point group operations)
 out of a pool of 24 trial point group operations.

The dynamic configuration has the point symmetry C_3v.
 The point group associated with its full space group is C_6v.

 Subroutine INISYM returns: Found 12 space group operations
 (whereof  6 operations are pure point group operations),
 and found    18 'primitive' translations

                                     Primitive cell

  volume of cell :     102.0389

  direct lattice vectors                    reciprocal lattice vectors
     2.084419050 -3.610319698  0.000000000     0.239874991 -0.138491890  0.000000000
     2.084419050  3.610319698  0.000000000     0.239874991  0.138491890  0.000000000
     0.000000000  0.000000000  6.779617410     0.000000000  0.000000000  0.147500949

  length of vectors
     4.168838100  4.168838100  6.779617410     0.276983781  0.276983781  0.147500949

  position of ions in fractional coordinates (direct lattice)
     0.666666667  0.333333333  0.500224370
     0.333333333  0.666666667  0.000224370
     0.666666667  0.333333333  0.876775630
     0.333333333  0.666666667  0.376775630

  ion indices of the primitive-cell ions
   primitive index   ion index
                 1           1
                 2          24
                 3          50
                 4          51

 KPOINTS: Automatic mesh

Automatic generation of k-mesh.
 Grid dimensions read from file:
 generate k-points for:    5    5    5

 Generating k-lattice:

  Cartesian coordinates                     Fractional coordinates (reciprocal lattice)
     0.015991666 -0.009232793  0.000000000     0.200000000  0.000000000  0.000000000
     0.015991666  0.009232793  0.000000000     0.000000000  0.200000000  0.000000000
     0.000000000  0.000000000  0.014750095     0.000000000  0.000000000  0.200000000

  Length of vectors
     0.018465585  0.018465585  0.014750095

  Shift w.r.t. Gamma in fractional coordinates (k-lattice)
     0.000000000  0.000000000  0.000000000

 Subroutine IBZKPT returns following result:

 Found     15 irreducible k-points:

 Following reciprocal coordinates:
            Coordinates               Weight
  0.000000  0.000000  0.000000      1.000000
  0.200000 -0.000000  0.000000      6.000000
  0.400000  0.000000  0.000000      6.000000
  0.200000  0.200000  0.000000      6.000000
  0.400000  0.200000  0.000000      6.000000
  0.000000  0.000000  0.200000      2.000000
  0.200000 -0.000000  0.200000     12.000000
  0.400000  0.000000  0.200000     12.000000
  0.200000  0.200000  0.200000     12.000000
  0.400000  0.200000  0.200000     12.000000
  0.000000  0.000000  0.400000      2.000000
  0.200000 -0.000000  0.400000     12.000000
  0.400000  0.000000  0.400000     12.000000
  0.200000  0.200000  0.400000     12.000000
  0.400000  0.200000  0.400000     12.000000

 Following cartesian coordinates:
            Coordinates               Weight
  0.000000  0.000000  0.000000      1.000000
  0.015992 -0.009233  0.000000      6.000000
  0.031983 -0.018466  0.000000      6.000000
  0.031983 -0.000000  0.000000      6.000000
[...]
  Fock        0.00000     0.00000     0.00000     0.00000     0.00000     0.00000
  Total      11.85805    11.85805    12.67598     0.00000     0.00000     0.00000
  in kB      10.34393    10.34393    11.05742     0.00000     0.00000     0.00000

 VOLUME and BASIS-vectors are now :
  energy-cutoff  :      400.00
  volume of cell :     1836.70
      direct lattice vectors                 reciprocal lattice vectors
     6.253257149-10.830959095  0.000000000     0.079958330 -0.046163963  0.000000000
     6.253257149 10.830959095  0.000000000     0.079958330  0.046163963  0.000000000
     0.000000000  0.000000000 13.559234820     0.000000000  0.000000000  0.073750474

  length of vectors
    12.506514299 12.506514299 13.559234820     0.092327927  0.092327927  0.073750474

 FORCES acting on ions
    electron-ion (+dipol)            ewald-force                    non-local-force                 convergence-correction
   0.270E-07 -.471E-06 -.193E+01   -.687E-10 0.921E-11 0.194E+01   0.364E-17 -.510E-18 -.777E-02   0.218E-11 -.195E-08 -.206E-04
   0.270E-07 -.471E-06 -.193E+01   -.167E-12 0.472E-10 0.194E+01   0.257E-18 -.103E-18 -.777E-02   -.192E-11 -.194E-08 -.206E-04
   0.270E-07 0.471E-06 -.193E+01   -.163E-12 0.287E-10 0.194E+01   0.308E-17 0.369E-17 -.777E-02   -.113E-11 0.194E-08 -.206E-04
   0.270E-07 -.471E-06 -.193E+01   0.349E-10 0.294E-10 0.194E+01   0.319E-17 -.263E-18 -.777E-02   -.242E-11 -.195E-08 -.206E-04
   0.270E-07 0.471E-06 -.193E+01   0.362E-10 0.542E-11 0.194E+01   0.468E-17 0.139E-17 -.777E-02   -.156E-11 0.195E-08 -.206E-04
   0.270E-07 -.471E-06 -.193E+01   -.289E-10 -.158E-10 0.194E+01   0.411E-17 -.635E-18 -.777E-02   0.182E-11 -.194E-08 -.206E-04
   0.270E-07 0.471E-06 -.193E+01   -.324E-10 -.298E-10 0.194E+01   -.547E-18 0.116E-17 -.777E-02   0.213E-11 0.195E-08 -.206E-04
   0.270E-07 -.471E-06 -.193E+01   0.284E-10 -.350E-11 0.194E+01   -.324E-17 0.227E-18 -.777E-02   0.778E-12 -.194E-08 -.206E-04
   0.270E-07 0.471E-06 -.193E+01   0.349E-10 -.383E-10 0.194E+01   0.912E-18 0.279E-17 -.777E-02   -.112E-11 0.194E-08 -.206E-04
   0.270E-07 -.471E-06 -.193E+01   -.284E-10 -.367E-11 0.194E+01   -.403E-17 -.109E-17 -.777E-02   0.135E-11 -.194E-08 -.206E-04
   0.270E-07 0.471E-06 -.193E+01   -.327E-10 -.311E-10 0.194E+01   0.532E-17 0.747E-17 -.777E-02   0.246E-11 0.195E-08 -.206E-04
   0.270E-07 -.471E-06 -.193E+01   0.168E-11 0.486E-11 0.194E+01   0.516E-17 0.172E-17 -.777E-02   0.498E-12 -.195E-08 -.206E-04
   0.270E-07 0.471E-06 -.193E+01   -.190E-11 0.197E-11 0.194E+01   -.989E-18 0.467E-17 -.777E-02   -.109E-11 0.194E-08 -.206E-04
   0.270E-07 0.471E-06 -.193E+01   -.130E-10 -.392E-10 0.194E+01   0.375E-17 0.491E-17 -.777E-02   0.206E-11 0.195E-08 -.206E-04
   0.270E-07 -.471E-06 -.193E+01   -.142E-12 -.287E-10 0.194E+01   0.102E-17 0.108E-17 -.777E-02   0.159E-11 -.194E-08 -.206E-04
   0.270E-07 -.471E-06 -.193E+01   0.345E-10 -.101E-10 0.194E+01   0.288E-17 0.176E-17 -.777E-02   0.473E-12 -.194E-08 -.206E-04
   0.270E-07 -.471E-06 -.193E+01   0.159E-11 0.129E-10 0.194E+01   -.392E-17 -.494E-18 -.777E-02   0.628E-12 -.195E-08 -.206E-04
   0.270E-07 0.471E-06 -.193E+01   0.367E-10 -.307E-10 0.194E+01   0.243E-17 0.344E-17 -.777E-02   -.141E-11 0.194E-08 -.206E-04
   0.270E-07 -.471E-06 -.193E+01   0.769E-11 0.400E-10 0.194E+01   0.335E-17 -.490E-18 -.777E-02   -.208E-11 -.194E-08 -.206E-04
   0.270E-07 0.471E-06 -.193E+01   -.630E-10 -.739E-11 0.194E+01   -.143E-17 0.592E-18 -.777E-02   0.284E-11 0.194E-08 -.206E-04
   0.270E-07 0.471E-06 -.193E+01   0.609E-10 0.448E-11 0.194E+01   0.413E-17 0.309E-17 -.777E-02   -.203E-11 0.194E-08 -.206E-04
   0.270E-07 -.471E-06 -.193E+01   0.532E-10 0.608E-11 0.194E+01   0.116E-17 -.652E-18 -.777E-02   -.256E-11 -.195E-08 -.206E-04
   0.270E-07 -.471E-06 -.193E+01   -.533E-10 0.325E-11 0.194E+01   -.147E-17 -.827E-18 -.777E-02   0.214E-11 -.195E-08 -.206E-04
   0.270E-07 0.471E-06 -.193E+01   -.685E-10 -.428E-11 0.194E+01   0.274E-17 0.661E-17 -.777E-02   0.291E-11 0.194E-08 -.206E-04
   0.270E-07 -.471E-06 -.193E+01   0.320E-10 0.549E-11 0.194E+01   0.198E-17 0.102E-17 -.777E-02   -.271E-11 -.195E-08 -.206E-04
   0.270E-07 0.471E-06 -.193E+01   0.622E-14 0.288E-10 0.194E+01   0.161E-17 0.244E-17 -.777E-02   -.110E-11 0.194E-08 -.206E-04
   0.270E-07 -.471E-06 -.193E+01   -.400E-13 -.287E-10 0.194E+01   0.570E-17 -.516E-18 -.777E-02   0.186E-11 -.194E-08 -.206E-04
   0.270E-07 0.471E-06 -.193E+01   -.297E-10 0.204E-10 0.194E+01   0.579E-18 0.228E-17 -.777E-02   -.476E-12 0.195E-08 -.206E-04
   0.270E-07 0.471E-06 -.193E+01   0.593E-10 -.959E-11 0.194E+01   0.157E-18 0.330E-17 -.777E-02   -.183E-11 0.194E-08 -.206E-04
   0.270E-07 -.471E-06 -.193E+01   0.537E-10 0.376E-11 0.194E+01   0.355E-17 0.930E-18 -.777E-02   -.248E-11 -.195E-08 -.206E-04
   0.270E-07 -.471E-06 -.193E+01   -.307E-10 0.126E-10 0.194E+01   -.274E-17 -.282E-18 -.777E-02   0.133E-11 -.194E-08 -.206E-04
   0.270E-07 0.471E-06 -.193E+01   -.236E-10 0.151E-10 0.194E+01   0.111E-17 0.349E-17 -.777E-02   -.580E-12 0.195E-08 -.206E-04
   0.270E-07 0.471E-06 -.193E+01   0.628E-11 -.252E-10 0.194E+01   -.770E-18 -.106E-17 -.777E-02   0.215E-11 0.195E-08 -.206E-04
   0.270E-07 0.471E-06 -.193E+01   0.238E-10 0.142E-10 0.194E+01   0.235E-17 0.165E-17 -.777E-02   -.176E-11 0.195E-08 -.206E-04
   0.270E-07 -.471E-06 -.193E+01   -.315E-10 0.126E-10 0.194E+01   0.403E-17 0.198E-17 -.777E-02   0.774E-12 -.194E-08 -.206E-04
   0.270E-07 0.471E-06 -.193E+01   0.711E-14 0.533E-12 0.194E+01   0.153E-17 0.455E-17 -.777E-02   -.962E-12 0.194E-08 -.206E-04
   -.133E-06 -.202E-06 0.187E+01   0.160E-13 -.129E-10 -.194E+01   -.129E-17 -.914E-17 0.709E-01   0.817E-12 -.216E-08 0.152E-04
   -.133E-06 0.202E-06 0.187E+01   0.955E-14 -.108E-10 -.194E+01   -.912E-17 0.585E-17 0.709E-01   0.111E-11 0.216E-08 0.152E-04
   -.133E-06 -.202E-06 0.187E+01   0.272E-10 -.378E-12 -.194E+01   -.380E-17 -.465E-17 0.709E-01   0.263E-12 -.215E-08 0.152E-04
   -.133E-06 0.202E-06 0.187E+01   0.439E-12 -.111E-10 -.194E+01   -.276E-17 0.990E-17 0.709E-01   0.962E-12 0.216E-08 0.152E-04
   -.133E-06 0.202E-06 0.187E+01   -.552E-11 -.917E-11 -.194E+01   -.101E-16 0.868E-17 0.709E-01   -.589E-12 0.216E-08 0.152E-04
   -.133E-06 -.202E-06 0.187E+01   0.276E-10 -.759E-12 -.194E+01   0.583E-17 -.796E-17 0.709E-01   0.412E-12 -.215E-08 0.152E-04
   -.133E-06 0.202E-06 0.187E+01   -.551E-11 -.919E-11 -.194E+01   0.116E-16 0.129E-16 0.709E-01   -.564E-12 0.216E-08 0.152E-04
   -.133E-06 -.202E-06 0.187E+01   0.174E-10 -.305E-11 -.194E+01   -.116E-16 -.145E-16 0.709E-01   -.135E-11 -.216E-08 0.152E-04
   -.133E-06 0.202E-06 0.187E+01   0.198E-10 0.116E-11 -.194E+01   -.492E-17 0.195E-17 0.709E-01   -.792E-12 0.215E-08 0.152E-04
   -.133E-06 -.202E-06 0.187E+01   0.195E-13 -.130E-10 -.194E+01   0.880E-17 -.128E-16 0.709E-01   0.809E-12 -.216E-08 0.152E-04
   -.133E-06 0.202E-06 0.187E+01   0.249E-10 -.302E-12 -.194E+01   0.760E-17 0.890E-17 0.709E-01   -.836E-12 0.216E-08 0.152E-04
   -.133E-06 0.202E-06 0.187E+01   -.285E-11 -.987E-11 -.194E+01   -.107E-16 0.155E-16 0.709E-01   -.528E-12 0.215E-08 0.152E-04
   -.133E-06 0.202E-06 0.187E+01   0.235E-10 0.206E-11 -.194E+01   -.540E-17 0.225E-17 0.709E-01   -.741E-12 0.216E-08 0.152E-04
   -.133E-06 -.202E-06 0.187E+01   -.200E-10 -.208E-11 -.194E+01   -.423E-17 -.752E-17 0.709E-01   0.110E-11 -.216E-08 0.152E-04
   -.133E-06 0.202E-06 0.187E+01   -.182E-10 0.174E-11 -.194E+01   -.105E-16 -.338E-18 0.709E-01   0.134E-11 0.216E-08 0.152E-04
   -.133E-06 -.202E-06 0.187E+01   -.201E-10 -.210E-11 -.194E+01   0.392E-17 -.158E-16 0.709E-01   0.926E-12 -.216E-08 0.152E-04
   -.133E-06 0.202E-06 0.187E+01   -.196E-10 0.258E-11 -.194E+01   0.199E-17 0.894E-17 0.709E-01   0.142E-11 0.216E-08 0.152E-04
   -.133E-06 -.202E-06 0.187E+01   0.777E-11 0.110E-10 -.194E+01   -.766E-17 -.843E-17 0.709E-01   0.516E-12 -.216E-08 0.152E-04
   -.133E-06 0.202E-06 0.187E+01   -.236E-10 0.106E-11 -.194E+01   -.147E-16 0.116E-16 0.709E-01   -.355E-12 0.216E-08 0.152E-04
   -.133E-06 -.202E-06 0.187E+01   0.795E-11 0.114E-10 -.194E+01   -.289E-18 -.131E-16 0.709E-01   0.542E-12 -.216E-08 0.152E-04
   -.133E-06 0.202E-06 0.187E+01   -.236E-10 0.104E-11 -.194E+01   0.121E-16 0.110E-16 0.709E-01   -.110E-12 0.216E-08 0.152E-04
   -.133E-06 -.202E-06 0.187E+01   -.283E-11 0.967E-11 -.194E+01   -.129E-16 -.103E-16 0.709E-01   -.997E-12 -.216E-08 0.152E-04
   -.133E-06 0.202E-06 0.187E+01   0.542E-13 0.129E-10 -.194E+01   -.765E-17 0.671E-17 0.709E-01   -.534E-12 0.215E-08 0.152E-04
   -.133E-06 -.202E-06 0.187E+01   -.282E-11 0.969E-11 -.194E+01   0.103E-16 -.760E-17 0.709E-01   -.981E-12 -.216E-08 0.152E-04
   -.133E-06 0.202E-06 0.187E+01   0.480E-13 0.129E-10 -.194E+01   0.133E-16 0.998E-17 0.709E-01   -.549E-12 0.215E-08 0.152E-04
   -.133E-06 -.202E-06 0.187E+01   -.240E-10 -.275E-11 -.194E+01   -.361E-17 -.398E-17 0.709E-01   0.792E-12 -.215E-08 0.152E-04
   -.133E-06 0.202E-06 0.187E+01   0.725E-11 -.691E-11 -.194E+01   -.973E-17 0.700E-17 0.709E-01   0.114E-11 0.216E-08 0.152E-04
   -.133E-06 -.202E-06 0.187E+01   -.240E-10 -.277E-11 -.194E+01   0.576E-17 -.135E-16 0.709E-01   0.627E-12 -.215E-08 0.152E-04
   -.133E-06 0.202E-06 0.187E+01   0.606E-11 -.966E-11 -.194E+01   -.832E-18 0.786E-17 0.709E-01   0.113E-11 0.216E-08 0.152E-04
   -.133E-06 -.202E-06 0.187E+01   0.150E-11 0.113E-10 -.194E+01   -.522E-17 -.957E-17 0.709E-01   0.302E-12 -.216E-08 0.152E-04
   -.133E-06 -.202E-06 0.187E+01   0.173E-10 -.448E-11 -.194E+01   0.417E-17 0.593E-18 0.709E-01   -.114E-11 -.216E-08 0.152E-04
   -.133E-06 -.202E-06 0.187E+01   0.143E-11 0.114E-10 -.194E+01   0.722E-17 -.152E-16 0.709E-01   0.274E-12 -.216E-08 0.152E-04
   -.133E-06 0.202E-06 0.187E+01   0.236E-11 -.843E-11 -.194E+01   0.129E-16 0.991E-17 0.709E-01   -.388E-12 0.215E-08 0.152E-04
   -.133E-06 -.202E-06 0.187E+01   -.758E-11 0.770E-11 -.194E+01   -.115E-16 -.124E-16 0.709E-01   -.127E-11 -.216E-08 0.152E-04
   -.133E-06 -.202E-06 0.187E+01   -.761E-11 0.770E-11 -.194E+01   0.471E-17 -.137E-16 0.709E-01   -.129E-11 -.216E-08 0.152E-04
   -.133E-06 0.202E-06 0.187E+01   0.159E-10 0.340E-11 -.194E+01   0.115E-16 0.875E-17 0.709E-01   -.102E-11 0.215E-08 0.152E-04
   -.383E-05 -.218E-09 -.229E+01   0.526E-15 -.136E-12 -.115E-12   0.282E-16 0.271E-16 0.227E+01   0.118E-11 -.598E-12 -.198E-03

 POSITION                                       TOTAL-FORCE (eV/Angst)
      2.08442     -1.20344      3.39133         0.000000      0.000000     -0.003628
      6.25326      6.01720     10.17095        -0.000000      0.000000     -0.003628
      6.25326      8.42408      6.78114        -0.000000     -0.000000     -0.003628
      8.33768      2.40688      3.39133         0.000000      0.000000     -0.003628
      8.33768      4.81376      6.78114        -0.000000     -0.000000     -0.003628
      4.16884     -4.81376      3.39133         0.000000      0.000000     -0.003628
      4.16884     -2.40688      0.00152        -0.000000     -0.000000     -0.003628
      8.33768     -4.81376     10.17095         0.000000      0.000000     -0.003628
      8.33768     -2.40688      0.00152        -0.000000      0.000000     -0.003628
      4.16884     -4.81376     10.17095         0.000000      0.000000     -0.003628
      4.16884     -2.40688      6.78114        -0.000000      0.000000     -0.003628
      6.25326     -1.20344      3.39133         0.000000      0.000000     -0.003628
      6.25326      1.20344      0.00152        -0.000000      0.000000     -0.003628
      6.25326     -6.01720      6.78114        -0.000000     -0.000000     -0.003628
      6.25326     -8.42408     10.17095         0.000000     -0.000000     -0.003628
      8.33768     -4.81376      3.39133         0.000000      0.000000     -0.003628
      6.25326     -1.20344     10.17095         0.000000      0.000000     -0.003628
      8.33768     -2.40688      6.78114         0.000000     -0.000000     -0.003628
      6.25326      6.01720      3.39133        -0.000000      0.000000     -0.003628
      2.08442      1.20344      0.00152        -0.000000     -0.000000     -0.003628
     10.42210      1.20344      6.78114        -0.000000      0.000000     -0.003628
     10.42210     -1.20344     10.17095         0.000000      0.000000     -0.003628
      2.08442     -1.20344     10.17095         0.000000     -0.000000     -0.003628
      2.08442      1.20344      6.78114        -0.000000     -0.000000     -0.003628
      8.33768      2.40688     10.17095         0.000000      0.000000     -0.003628
      6.25326      8.42408      0.00152        -0.000000     -0.000000     -0.003628
      6.25326     -8.42408      3.39133         0.000000      0.000000     -0.003628
      4.16884      4.81376      0.00152        -0.000000      0.000000     -0.003628
     10.42210      1.20344      0.00152        -0.000000     -0.000000     -0.003628
     10.42210     -1.20344      3.39133         0.000000      0.000000     -0.003628
      4.16884      2.40688     10.17095         0.000000     -0.000000     -0.003628
      4.16884      4.81376      6.78114        -0.000000     -0.000000     -0.003628
      6.25326     -6.01720      0.00152        -0.000000     -0.000000     -0.003628
      8.33768      4.81376      0.00152        -0.000000     -0.000000     -0.003628
      4.16884      2.40688      3.39133         0.000000      0.000000     -0.003628
      6.25326      1.20344      6.78114        -0.000000     -0.000000     -0.003628
      6.25326     -8.42408      5.94420         0.000000     -0.000000      0.003628
      6.25326     -6.01720      2.55439         0.000000      0.000000      0.003628
      8.33768     -4.81376      5.94420         0.000000     -0.000000      0.003628
      6.25326     -6.01720      9.33401        -0.000000     -0.000000      0.003628
      8.33768     -2.40688      2.55439        -0.000000      0.000000      0.003628
      8.33768     -4.81376     12.72382        -0.000000      0.000000      0.003628
      8.33768     -2.40688      9.33401        -0.000000      0.000000      0.003628
     10.42210     -1.20344      5.94420        -0.000000     -0.000000      0.003628
     10.42210      1.20344      2.55439         0.000000     -0.000000      0.003628
      6.25326     -8.42408     12.72382        -0.000000     -0.000000      0.003628
      8.33768      4.81376      9.33401         0.000000      0.000000      0.003628
      6.25326      1.20344      2.55439         0.000000      0.000000      0.003628
      8.33768      4.81376      2.55439         0.000000      0.000000      0.003628
      2.08442     -1.20344      5.94420         0.000000     -0.000000      0.003628
      2.08442      1.20344      2.55439         0.000000      0.000000      0.003628
      2.08442     -1.20344     12.72382        -0.000000     -0.000000      0.003628
      2.08442      1.20344      9.33401        -0.000000     -0.000000      0.003628
      4.16884      2.40688      5.94420         0.000000     -0.000000      0.003628
      4.16884      4.81376      2.55439         0.000000      0.000000      0.003628
      4.16884      2.40688     12.72382        -0.000000      0.000000      0.003628
      4.16884      4.81376      9.33401         0.000000      0.000000      0.003628
      6.25326      6.01720      5.94420        -0.000000     -0.000000      0.003628
      6.25326      8.42408      2.55439         0.000000      0.000000      0.003628
      6.25326      6.01720     12.72382        -0.000000     -0.000000      0.003628
      6.25326      8.42408      9.33401        -0.000000      0.000000      0.003628
      4.16884     -4.81376      5.94420         0.000000     -0.000000      0.003628
      4.16884     -2.40688      2.55439         0.000000      0.000000      0.003628
      4.16884     -4.81376     12.72382        -0.000000     -0.000000      0.003628
      4.16884     -2.40688      9.33401        -0.000000     -0.000000      0.003628
      6.25326     -1.20344      5.94420         0.000000     -0.000000      0.003628
     10.42210     -1.20344     12.72382        -0.000000     -0.000000      0.003628
      6.25326     -1.20344     12.72382        -0.000000      0.000000      0.003628
      6.25326      1.20344      9.33401         0.000000      0.000000      0.003628
      8.33768      2.40688      5.94420        -0.000000     -0.000000      0.003628
      8.33768      2.40688     12.72382        -0.000000     -0.000000      0.003628
     10.42210      1.20344      9.33401        -0.000000      0.000000      0.003628
    total drift:                               -0.000004     -0.000000     -0.014252

  FREE ENERGIE OF THE ION-ELECTRON SYSTEM (eV)
  free  energy   TOTEN  =      -221.07781949 eV

  energy  without entropy=     -221.07781949  energy(sigma->0) =     -221.07781949