 vasp.6.4.2 20Jul23 (build Sep 17 2025 15:35:10) complex

 executed on             LinuxIFC date 2025.10.01  20:18:16

 INCAR:
   YSTEM = CdS Calculation
   PREC = Accurate
   ENCUT = 400
   ISTART = 0
   ICHARG = 2
   ISMEAR = 0
   SIGMA = 0.05
   EDIFF = 1E-6
   NELM = 100
   LREAL = .FALSE.
   LHFCALC = .TRUE.
   GGA = PE
   HFSCREEN = 0.2
   LWAVE = .FALSE.
   LCHARG = .FALSE.

 POTCAR:    PAW_PBE Cd 06Sep2000
 POTCAR:    PAW_PBE S 06Sep2000
|           W    W    AA    RRRRR   N    N  II  N    N   GGGG   !!!           |
|           W    W   A  A   R    R  NN   N  II  NN   N  G    G  !!!           |
|           W    W  A    A  R    R  N N  N  II  N N  N  G       !!!           |
|           W WW W  AAAAAA  RRRRR   N  N N  II  N  N N  G  GGG   !            |
|           WW  WW  A    A  R   R   N   NN  II  N   NN  G    G                |
|           W    W  A    A  R    R  N    N  II  N    N   GGGG   !!!           |
|     For optimal performance we recommend to set                             |
|       NCORE = 2 up to number-of-cores-per-socket                            |
|     This setting can greatly improve the performance of VASP for DFT.       |
|     The default, NCORE=1 might be grossly inefficient on modern             |
|     multi-core architectures or massively parallel machines. Do your        |
|     Unfortunately you need to use the default for GW and RPA                |
|     calculations (for HF NCORE is supported but not extensively tested      |
|     yet).                                                                   |

   TITEL  = PAW_PBE Cd 06Sep2000
   POMASS =  112.411; ZVAL   =   12.000    mass and valenz
   ENMAX  =  274.336; ENMIN  =  205.752 eV

   TITEL  = PAW_PBE S 06Sep2000
   POMASS =   32.066; ZVAL   =    6.000    mass and valenz
   ENMAX  =  258.689; ENMIN  =  194.016 eV

  PAW_PBE Cd 06Sep2000                  :
  PAW_PBE S 06Sep2000                   :

 POSCAR: Cd S
  positions in direct lattice
  velocities in cartesian coordinates
 exchange correlation table for  LEXCH =        8
   RHO(1)=    0.500       N(1)  =     2000
   RHO(2)=  100.500       N(2)  =     4000

 ion  position               nearest neighbor table
   1  0.222  0.111  0.250-   4 2.55  28 2.55  20 2.55   3 2.55
   2  0.111  0.222  0.000-   7 2.55  15 2.55  55 2.55   4 2.55
   3  0.222  0.111  0.438-   6 2.55  30 2.55  22 2.55   1 2.55
   4  0.111  0.222  0.188-   1 2.55   9 2.55  49 2.55   2 2.55
   5  0.222  0.111  0.750-   8 2.55  32 2.55  24 2.55   7 2.55
   6  0.111  0.222  0.500-   3 2.55  11 2.55  51 2.55   8 2.55
   7  0.222  0.111  0.938-   2 2.55  26 2.55  18 2.55   5 2.55
   8  0.111  0.222  0.688-   5 2.55  13 2.55  53 2.55   6 2.55
   9  0.222  0.444  0.250-   4 2.55  12 2.55  36 2.55  11 2.55
  10  0.111  0.556  0.000-  15 2.55  23 2.55  63 2.55  12 2.55
  11  0.222  0.444  0.438-   6 2.55  14 2.55  38 2.55   9 2.55
  12  0.111  0.556  0.188-   9 2.55  17 2.55  57 2.55  10 2.55
  13  0.222  0.444  0.750-   8 2.55  16 2.55  40 2.55  15 2.55
  14  0.111  0.556  0.500-  11 2.55  19 2.55  59 2.55  16 2.55
  15  0.222  0.444  0.938-   2 2.55  10 2.55  34 2.55  13 2.55
  16  0.111  0.556  0.688-  13 2.55  21 2.55  61 2.55  14 2.55
  17  0.222  0.778  0.250-  20 2.55  12 2.55  44 2.55  19 2.55
  18  0.111  0.889  0.000-  23 2.55   7 2.55  71 2.55  20 2.55
  19  0.222  0.778  0.438-  22 2.55  14 2.55  46 2.55  17 2.55
  20  0.111  0.889  0.188-  17 2.55   1 2.55  65 2.55  18 2.55
  21  0.222  0.778  0.750-  24 2.55  16 2.55  48 2.55  23 2.55
  22  0.111  0.889  0.500-  19 2.55   3 2.55  67 2.55  24 2.55
  23  0.222  0.778  0.938-  18 2.55  10 2.55  42 2.55  21 2.55
  24  0.111  0.889  0.688-  21 2.55   5 2.55  69 2.55  22 2.55
  25  0.556  0.111  0.250-  28 2.55  52 2.55  44 2.55  27 2.55
  26  0.444  0.222  0.000-  31 2.55   7 2.55  39 2.55  28 2.55
  27  0.556  0.111  0.438-  30 2.55  54 2.55  46 2.55  25 2.55
  28  0.444  0.222  0.188-  25 2.55   1 2.55  33 2.55  26 2.55
  29  0.556  0.111  0.750-  32 2.55  56 2.55  48 2.55  31 2.55
  30  0.444  0.222  0.500-  27 2.55   3 2.55  35 2.55  32 2.55
  31  0.556  0.111  0.938-  26 2.55  50 2.55  42 2.55  29 2.55
  32  0.444  0.222  0.688-  29 2.55   5 2.55  37 2.55  30 2.55
  33  0.556  0.444  0.250-  28 2.55  60 2.55  36 2.55  35 2.55
  34  0.444  0.556  0.000-  15 2.55  47 2.55  39 2.55  36 2.55
  35  0.556  0.444  0.438-  30 2.55  62 2.55  38 2.55  33 2.55
  36  0.444  0.556  0.188-   9 2.55  41 2.55  33 2.55  34 2.55
  37  0.556  0.444  0.750-  32 2.55  64 2.55  40 2.55  39 2.55
  38  0.444  0.556  0.500-  11 2.55  43 2.55  35 2.55  40 2.55
  39  0.556  0.444  0.938-  26 2.55  58 2.55  34 2.55  37 2.55
  40  0.444  0.556  0.688-  13 2.55  45 2.55  37 2.55  38 2.55
  41  0.556  0.778  0.250-  44 2.55  36 2.55  68 2.55  43 2.55
  42  0.444  0.889  0.000-  47 2.55  23 2.55  31 2.55  44 2.55
  43  0.556  0.778  0.438-  46 2.55  38 2.55  70 2.55  41 2.55
  44  0.444  0.889  0.188-  41 2.55  17 2.55  25 2.55  42 2.55
  45  0.556  0.778  0.750-  48 2.55  40 2.55  72 2.55  47 2.55
  46  0.444  0.889  0.500-  43 2.55  19 2.55  27 2.55  48 2.55
  47  0.556  0.778  0.938-  42 2.55  34 2.55  66 2.55  45 2.55
  48  0.444  0.889  0.688-  45 2.55  21 2.55  29 2.55  46 2.55
  49  0.889  0.111  0.250-  52 2.55   4 2.55  68 2.55  51 2.55
  50  0.778  0.222  0.000-  55 2.55  31 2.55  63 2.55  52 2.55
  51  0.889  0.111  0.438-  54 2.55   6 2.55  70 2.55  49 2.55
  52  0.778  0.222  0.188-  49 2.55  25 2.55  57 2.55  50 2.55
  53  0.889  0.111  0.750-  56 2.55   8 2.55  72 2.55  55 2.55
  54  0.778  0.222  0.500-  51 2.55  27 2.55  59 2.55  56 2.55
  55  0.889  0.111  0.938-  50 2.55   2 2.55  66 2.55  53 2.55
  56  0.778  0.222  0.688-  53 2.55  29 2.55  61 2.55  54 2.55
  57  0.889  0.444  0.250-  52 2.55  60 2.55  12 2.55  59 2.55
  58  0.778  0.556  0.000-  39 2.55  63 2.55  71 2.55  60 2.55
  59  0.889  0.444  0.438-  54 2.55  62 2.55  14 2.55  57 2.55
  60  0.778  0.556  0.188-  33 2.55  57 2.55  65 2.55  58 2.55
  61  0.889  0.444  0.750-  56 2.55  64 2.55  16 2.55  63 2.55
  62  0.778  0.556  0.500-  35 2.55  59 2.55  67 2.55  64 2.55
  63  0.889  0.444  0.938-  50 2.55  58 2.55  10 2.55  61 2.55
  64  0.778  0.556  0.688-  37 2.55  61 2.55  69 2.55  62 2.55
  65  0.889  0.778  0.250-  68 2.55  60 2.55  20 2.55  67 2.55
  66  0.778  0.889  0.000-  71 2.55  47 2.55  55 2.55  68 2.55
  67  0.889  0.778  0.438-  70 2.55  62 2.55  22 2.55  65 2.55
  68  0.778  0.889  0.188-  65 2.55  41 2.55  49 2.55  66 2.55
  69  0.889  0.778  0.750-  72 2.55  64 2.55  24 2.55  71 2.55
  70  0.778  0.889  0.500-  67 2.55  43 2.55  51 2.55  72 2.55
  71  0.889  0.778  0.938-  66 2.55  58 2.55  18 2.55  69 2.55
  72  0.778  0.889  0.688-  69 2.55  45 2.55  53 2.55  70 2.55

  LATTYP: Found a hexagonal cell.
 ALAT       =    12.5065142985
 C/A-ratio  =     1.0841737751

  Lattice vectors:

 A1 = (   6.2532571493, -10.8309590953,   0.0000000000)
 A2 = (   6.2532571493,  10.8309590953,   0.0000000000)
 A3 = (   0.0000000000,   0.0000000000,  13.5592348200)

Analysis of symmetry for initial positions (statically):
 Subroutine PRICEL returns:
 Original cell was already a primitive cell.

 Routine SETGRP: Setting up the symmetry group for a
 hexagonal supercell.

 Subroutine GETGRP returns: Found  1 space group operations
 (whereof  1 operations were pure point group operations)
 out of a pool of 24 trial point group operations.

The static configuration has the point symmetry C_1 .

Analysis of symmetry for dynamics (positions and initial velocities):
 Subroutine PRICEL returns:
 Original cell was already a primitive cell.

 Routine SETGRP: Setting up the symmetry group for a
 hexagonal supercell.

 Subroutine GETGRP returns: Found  1 space group operations
 (whereof  1 operations were pure point group operations)
 out of a pool of 24 trial point group operations.

The dynamic configuration has the point symmetry C_1 .

 Subroutine INISYM returns: Found  1 space group operations
 (whereof  1 operations are pure point group operations),
 and found     1 'primitive' translations

                                     Primitive cell

  volume of cell :    1836.7007

  direct lattice vectors                    reciprocal lattice vectors
     6.253257149-10.830959095  0.000000000     0.079958330 -0.046163963  0.000000000
     6.253257149 10.830959095  0.000000000     0.079958330  0.046163963  0.000000000
     0.000000000  0.000000000 13.559234820     0.000000000  0.000000000  0.073750474

  length of vectors
    12.506514299 12.506514299 13.559234820     0.092327927  0.092327927  0.073750474

  position of ions in fractional coordinates (direct lattice)
     0.222222222  0.111111111  0.250112185
     0.111111111  0.222222222  0.000112185
     0.222222222  0.111111111  0.438387815
     0.111111111  0.222222222  0.188387815
     0.222222222  0.111111111  0.750112185
     0.111111111  0.222222222  0.500112185
     0.222222222  0.111111111  0.938387815
     0.111111111  0.222222222  0.688387815
     0.222222222  0.444444444  0.250112185
     0.111111111  0.555555556  0.000112185
     0.222222222  0.444444444  0.438387815
     0.111111111  0.555555556  0.188387815
     0.222222222  0.444444444  0.750112185
     0.111111111  0.555555556  0.500112185
     0.222222222  0.444444444  0.938387815
     0.111111111  0.555555556  0.688387815
     0.222222222  0.777777778  0.250112185
     0.111111111  0.888888889  0.000112185
     0.222222222  0.777777778  0.438387815
     0.111111111  0.888888889  0.188387815
     0.222222222  0.777777778  0.750112185
     0.111111111  0.888888889  0.500112185
     0.222222222  0.777777778  0.938387815
     0.111111111  0.888888889  0.688387815
     0.555555556  0.111111111  0.250112185
     0.444444444  0.222222222  0.000112185
     0.555555556  0.111111111  0.438387815
     0.444444444  0.222222222  0.188387815
     0.555555556  0.111111111  0.750112185
     0.444444444  0.222222222  0.500112185
     0.555555556  0.111111111  0.938387815
     0.444444444  0.222222222  0.688387815
     0.555555556  0.444444444  0.250112185
     0.444444444  0.555555556  0.000112185
     0.555555556  0.444444444  0.438387815
     0.444444444  0.555555556  0.188387815
     0.555555556  0.444444444  0.750112185
     0.444444444  0.555555556  0.500112185
     0.555555556  0.444444444  0.938387815
     0.444444444  0.555555556  0.688387815
     0.555555556  0.777777778  0.250112185
     0.444444444  0.888888889  0.000112185
     0.555555556  0.777777778  0.438387815
     0.444444444  0.888888889  0.188387815
     0.555555556  0.777777778  0.750112185
     0.444444444  0.888888889  0.500112185
     0.555555556  0.777777778  0.938387815
     0.444444444  0.888888889  0.688387815
     0.888888889  0.111111111  0.250112185
     0.777777778  0.222222222  0.000112185
     0.888888889  0.111111111  0.438387815
     0.777777778  0.222222222  0.188387815
     0.888888889  0.111111111  0.750112185
     0.777777778  0.222222222  0.500112185
     0.888888889  0.111111111  0.938387815
     0.777777778  0.222222222  0.688387815
     0.888888889  0.444444444  0.250112185
     0.777777778  0.555555556  0.000112185
     0.888888889  0.444444444  0.438387815
[...]
         0         1         2         3         4         5         6         7         8         9
 total charge-density along one line

------------------------ aborting loop because EDIFF is reached ----------------------------------------

 VOLUME and BASIS-vectors are now :
  energy-cutoff  :      400.00
  volume of cell :     1836.70
      direct lattice vectors                 reciprocal lattice vectors
     6.253257149-10.830959095  0.000000000     0.079958330 -0.046163963  0.000000000
     6.253257149 10.830959095  0.000000000     0.079958330  0.046163963  0.000000000
     0.000000000  0.000000000 13.559234820     0.000000000  0.000000000  0.073750474

  length of vectors
    12.506514299 12.506514299 13.559234820     0.092327927  0.092327927  0.073750474

 FORCES acting on ions
    electron-ion (+dipol)            ewald-force                    non-local-force                 convergence-correction
   0.143E+03 -.521E+02 -.112E+02   -.144E+03 0.517E+02 0.114E+02   0.658E+00 0.426E+00 -.191E+00   -.887E-03 0.128E-03 -.191E-02
   0.315E+03 -.201E+03 0.742E+02   -.314E+03 0.200E+03 -.731E+02   -.211E+01 0.800E+00 -.149E+01   -.384E-02 0.272E-02 -.180E-02
   0.123E+03 -.630E+02 -.320E+02   -.124E+03 0.633E+02 0.318E+02   0.611E+00 -.226E+00 0.247E+00   -.122E-02 0.515E-03 0.706E-04
   0.335E+03 -.212E+03 -.304E+02   -.334E+03 0.212E+03 0.300E+02   -.240E+01 0.895E+00 0.896E+00   -.112E-02 0.139E-02 -.370E-02
   0.695E+02 -.633E+02 -.543E+01   -.700E+02 0.633E+02 0.569E+01   0.362E+00 -.656E-01 -.251E+00   -.248E-02 0.133E-02 0.193E-02
   0.281E+03 -.211E+03 -.659E+01   -.280E+03 0.212E+03 0.749E+01   -.205E+01 0.383E+00 -.129E+01   -.238E-02 0.232E-03 0.136E-02
   0.885E+02 -.519E+02 0.485E+02   -.902E+02 0.517E+02 -.488E+02   0.143E+01 0.936E-01 0.301E+00   -.170E-02 0.217E-02 0.446E-05
   0.261E+03 -.200E+03 -.360E+02   -.260E+03 0.200E+03 0.356E+02   -.254E+01 0.139E+00 0.872E+00   -.507E-02 0.147E-02 0.350E-02
   -.435E+01 -.988E+02 -.475E+02   0.402E+01 0.991E+02 0.485E+02   0.175E+00 -.178E+00 -.926E+00   -.242E-03 -.993E-04 -.227E-02
   0.224E+03 -.164E+03 0.646E+02   -.223E+03 0.164E+03 -.643E+02   -.247E+01 0.887E+00 -.763E+00   -.144E-02 -.477E-03 -.738E-03
   -.123E+03 -.302E+02 -.994E+02   0.122E+03 0.309E+02 0.998E+02   0.186E+01 -.133E+01 0.233E+00   -.919E-03 -.422E-03 0.261E-03
   0.222E+03 -.165E+03 -.322E+02   -.220E+03 0.165E+03 0.318E+02   -.274E+01 0.651E+00 0.853E+00   -.441E-03 0.710E-03 -.278E-02
   -.149E+03 0.165E+02 0.629E+02   0.149E+03 -.159E+02 -.624E+02   0.150E+01 -.125E+01 -.107E+01   -.151E-02 0.171E-02 0.218E-02
   0.194E+03 -.120E+03 -.566E+01   -.193E+03 0.119E+03 0.567E+01   -.190E+01 0.194E+01 -.570E+00   0.626E-03 -.913E-03 0.168E-02
   -.306E+02 -.520E+02 0.849E+02   0.310E+02 0.523E+02 -.859E+02   -.553E+00 -.114E+00 0.940E+00   -.101E-02 0.108E-02 0.257E-03
   0.196E+03 -.118E+03 -.266E+02   -.196E+03 0.117E+03 0.269E+02   -.188E+01 0.146E+01 0.344E+00   -.555E-04 -.168E-02 0.244E-02
   -.500E+02 0.987E+02 0.170E+02   0.487E+02 -.979E+02 -.168E+02   0.238E+01 -.137E+01 -.691E+00   0.107E-02 -.524E-03 -.237E-02
   0.331E+03 -.137E+03 0.560E+02   -.331E+03 0.136E+03 -.555E+02   -.122E+01 0.140E+01 -.103E+01   -.861E-03 0.869E-03 -.785E-03
   -.500E+02 0.122E+03 -.604E+02   0.487E+02 -.121E+03 0.600E+02   0.233E+01 -.142E+01 0.892E+00   0.173E-03 -.434E-03 0.527E-04
   0.331E+03 -.135E+03 -.236E+02   -.331E+03 0.134E+03 0.230E+02   -.132E+01 0.139E+01 0.995E+00   0.458E-03 0.386E-03 -.218E-02
   -.495E+02 0.123E+03 0.417E+02   0.487E+02 -.121E+03 -.410E+02   0.192E+01 -.185E+01 -.113E+01   0.170E-02 -.154E-02 0.141E-02
   0.331E+03 -.135E+03 0.446E+01   -.331E+03 0.134E+03 -.406E+01   -.129E+01 0.167E+01 -.854E+00   0.117E-02 0.874E-03 0.758E-03
   -.501E+02 0.990E+02 0.209E+01   0.487E+02 -.979E+02 -.210E+01   0.243E+01 -.159E+01 0.554E+00   0.170E-02 -.103E-02 -.323E-03
   0.331E+03 -.138E+03 -.367E+02   -.331E+03 0.136E+03 0.366E+02   -.179E+01 0.167E+01 0.784E+00   -.960E-04 0.120E-02 0.270E-02
   -.147E+03 0.377E+03 0.730E+02   0.147E+03 -.377E+03 -.714E+02   0.861E-01 -.686E+00 -.232E+01   0.722E-03 -.209E-02 -.361E-02
   -.300E+03 0.815E+02 0.972E+02   0.300E+03 -.825E+02 -.981E+02   0.140E+01 0.160E+01 0.702E-01   0.311E-03 -.128E-02 0.551E-03
   -.145E+03 0.375E+03 -.105E+03   0.145E+03 -.376E+03 0.104E+03   0.170E+00 -.101E+01 0.221E+01   0.405E-05 -.987E-03 -.770E-03
   -.181E+03 0.150E+03 0.499E+02   0.182E+03 -.151E+03 -.502E+02   -.540E+00 0.763E+00 0.362E+00   0.540E-03 -.117E-02 -.186E-02
   -.172E+03 0.330E+03 0.673E+02   0.172E+03 -.329E+03 -.665E+02   0.448E+00 -.163E+01 -.172E+01   -.646E-03 -.527E-02 0.316E-02
   -.208E+03 0.104E+03 -.873E+02   0.209E+03 -.104E+03 0.876E+02   -.750E+00 0.553E-01 -.374E+00   -.132E-02 -.306E-03 -.426E-03
   -.174E+03 0.331E+03 -.351E+02   0.174E+03 -.331E+03 0.340E+02   0.254E+00 -.178E+01 0.192E+01   0.138E-02 -.544E-02 0.610E-03
   -.326E+03 0.342E+02 -.601E+02   0.327E+03 -.357E+02 0.607E+02   0.945E+00 0.206E+01 0.192E+00   -.264E-02 -.151E-02 0.985E-03
   -.403E+03 0.941E+02 0.281E+02   0.404E+03 -.937E+02 -.258E+02   0.747E+00 -.122E+01 -.248E+01   0.681E-03 -.403E-03 -.287E-02
   -.402E+03 0.925E+02 0.173E+03   0.404E+03 -.937E+02 -.172E+03   -.146E+00 0.289E+00 -.154E+01   0.373E-02 0.214E-02 -.716E-03
   -.403E+03 -.410E+02 -.175E+03   0.404E+03 0.427E+02 0.174E+03   0.135E+00 -.554E+00 0.200E+01   -.677E-03 0.205E-03 -.177E-02
   -.404E+03 -.424E+02 -.255E+02   0.404E+03 0.427E+02 0.241E+02   0.109E+01 0.676E+00 0.184E+01   0.215E-02 0.894E-03 -.289E-02
   -.199E+03 -.193E+02 -.130E+02   0.202E+03 0.214E+02 0.150E+02   -.271E+01 -.110E+01 -.222E+01   0.156E-03 0.681E-03 0.175E-02
   -.201E+03 -.203E+02 -.886E+02   0.202E+03 0.214E+02 0.900E+02   -.792E+00 -.609E+00 -.160E+01   -.192E-03 0.303E-03 0.526E-03
   -.200E+03 0.462E+02 0.865E+02   0.202E+03 -.468E+02 -.891E+02   -.113E+01 0.519E+00 0.247E+01   0.106E-02 0.553E-04 0.181E-02
   -.198E+03 0.450E+02 0.135E+02   0.202E+03 -.468E+02 -.158E+02   -.299E+01 0.124E+01 0.259E+01   0.200E-02 0.250E-02 0.140E-02
   -.161E+03 0.200E+02 -.325E+02   0.163E+03 -.178E+02 0.332E+02   -.146E+01 -.176E+01 0.221E+00   0.100E-02 0.500E-03 -.311E-02
   -.866E+02 0.163E+03 -.190E+02   0.870E+02 -.165E+03 0.199E+02   -.302E+00 0.197E+01 0.617E-01   0.103E-02 -.227E-02 -.628E-03
   -.103E+03 0.525E+02 -.412E+02   0.104E+03 -.519E+02 0.409E+02   -.951E+00 -.141E+01 -.383E+00   0.778E-03 0.230E-03 0.211E-03
   -.867E+02 0.163E+03 0.356E+02   0.858E+02 -.165E+03 -.362E+02   0.784E+00 0.179E+01 -.302E+00   0.686E-03 -.117E-02 -.167E-02
   -.904E+02 0.763E+02 0.220E+02   0.908E+02 -.753E+02 -.222E+02   -.113E+01 -.107E+01 0.183E+00   0.310E-02 0.917E-04 0.234E-02
   -.721E+02 0.185E+03 -.540E+02   0.723E+02 -.188E+03 0.549E+02   0.338E-01 0.221E+01 0.103E+00   0.447E-03 0.186E-03 0.130E-02
   -.148E+03 0.439E+02 0.506E+02   0.150E+03 -.412E+02 -.520E+02   -.151E+01 -.206E+01 0.873E+00   0.245E-02 0.958E-05 -.127E-02
   -.732E+02 0.187E+03 0.390E+02   0.735E+02 -.189E+03 -.386E+02   0.102E+00 0.130E+01 -.941E+00   0.751E-03 -.217E-02 0.235E-02
   0.163E+03 -.669E+02 -.193E+02   -.165E+03 0.682E+02 0.212E+02   0.116E+01 -.108E+01 -.169E+01   -.817E-03 0.312E-03 -.193E-02
   -.217E+02 0.478E+02 0.155E+01   0.244E+02 -.490E+02 0.186E+01   -.179E+01 0.692E+00 -.237E+01   -.228E-03 -.179E-02 -.925E-03
   0.163E+03 -.661E+02 0.345E+01   -.165E+03 0.668E+02 -.494E+01   0.121E+01 -.400E+00 0.122E+01   -.726E-03 -.658E-03 0.830E-03
   -.215E+02 0.596E+02 0.208E+02   0.244E+02 -.606E+02 -.234E+02   -.204E+01 0.537E+00 0.160E+01   -.274E-03 -.285E-03 -.260E-02
   0.164E+03 -.653E+02 -.132E+02   -.165E+03 0.668E+02 0.144E+02   0.583E+00 -.119E+01 -.114E+01   -.240E-02 -.597E-03 0.209E-02
   -.216E+02 0.591E+02 -.307E+02   0.244E+02 -.606E+02 0.329E+02   -.205E+01 0.748E+00 -.863E+00   -.764E-03 -.144E-02 0.708E-03
   0.164E+03 -.673E+02 0.292E+02   -.165E+03 0.682E+02 -.307E+02   0.108E+01 -.659E+00 0.131E+01   -.187E-02 0.763E-03 -.115E-02
   -.219E+02 0.479E+02 0.900E+01   0.244E+02 -.490E+02 -.113E+02   -.178E+01 0.582E+00 0.104E+01   -.839E-03 -.275E-02 0.284E-02
   0.953E+02 -.565E+02 -.139E+02   -.979E+02 0.586E+02 0.163E+02   0.162E+01 -.169E+01 -.821E+00   -.845E-03 -.205E-03 -.239E-02
   -.161E+02 -.255E+02 0.391E+02   0.155E+02 0.261E+02 -.401E+02   0.603E+00 -.529E+00 0.136E+01   0.163E-04 -.264E-03 0.288E-03
   0.944E+02 -.579E+02 -.202E+01   -.967E+02 0.593E+02 -.719E-01   0.147E+01 -.906E+00 0.550E+00   -.113E-03 -.565E-03 -.769E-03
   -.722E+02 0.620E+01 0.314E+02   0.746E+02 -.796E+01 -.341E+02   -.145E+01 0.140E+01 0.123E+01   -.506E-03 -.202E-03 -.187E-02
   0.108E+03 -.827E+02 -.175E+02   -.110E+03 0.827E+02 0.188E+02   0.193E+01 0.619E+00 -.134E+01   -.464E-03 -.217E-02 0.238E-02
   -.582E+02 -.171E+02 -.497E+02   0.611E+02 0.154E+02 0.528E+02   -.202E+01 0.125E+01 -.189E+01   0.759E-04 0.342E-03 -.589E-03
   0.109E+03 -.813E+02 0.331E+02   -.111E+03 0.820E+02 -.351E+02   0.149E+01 -.135E+00 0.173E+01   -.142E-02 -.103E-02 0.724E-03
   -.309E+01 -.489E+02 -.205E+02   0.201E+01 0.495E+02 0.213E+02   0.819E+00 -.839E+00 -.781E+00   0.135E-02 -.285E-03 0.132E-02
   0.128E+03 -.990E+02 -.193E+02   -.130E+03 0.100E+03 0.207E+02   0.153E+01 -.759E+00 -.873E+00   -.172E-03 0.854E-03 -.191E-02
   0.444E+02 -.254E+02 0.206E+02   -.451E+02 0.258E+02 -.215E+02   0.607E+00 -.922E+00 0.111E+01   0.273E-03 0.219E-02 -.178E-02
   0.138E+03 -.105E+03 -.231E+01   -.140E+03 0.106E+03 0.841E+00   0.130E+01 -.314E+00 0.921E+00   0.569E-03 0.131E-02 0.572E-03
   0.347E+02 -.300E+02 0.568E+00   -.350E+02 0.316E+02 -.602E-01   0.783E+00 -.152E+01 -.100E+01   -.349E-03 0.115E-02 -.271E-02
   0.166E+03 -.104E+03 -.169E+02   -.167E+03 0.106E+03 0.179E+02   0.632E+00 -.105E+01 -.106E+01   0.136E-02 0.352E-02 0.964E-03
   0.608E+02 -.315E+02 -.193E+02   -.620E+02 0.316E+02 0.188E+02   0.897E+00 -.113E+00 0.707E+00   0.151E-02 0.747E-03 0.292E-02
   0.156E+03 -.101E+03 0.391E+02   -.157E+03 0.100E+03 -.395E+02   0.492E+00 0.560E+00 0.746E+00   -.122E-05 0.220E-02 0.267E-03
   0.714E+02 -.251E+02 -.301E+01   -.721E+02 0.258E+02 0.278E+01   0.880E+00 -.769E+00 -.353E+00   0.650E-03 0.213E-02 0.296E-02
   0.950E+01 0.269E+01 0.185E+01   0.148E-11 0.153E-11 0.114E-12   -.887E+01 -.249E+01 -.176E+01   -.685E-02 -.333E-02 -.465E-02

 POSITION                                       TOTAL-FORCE (eV/Angst)
      2.08442     -1.20344      3.39133        -0.115988      0.003228     -0.019800
      2.08442      1.20344      0.00152        -1.230940      0.693449     -0.417448
      2.08442     -1.20344      5.94420        -0.060770      0.081226      0.027159
      2.08442      1.20344      2.55439        -1.177518      0.780427      0.499971
      2.08442     -1.20344     10.17095        -0.149832     -0.123737      0.005122
      2.08442      1.20344      6.78114        -1.086006      1.068030     -0.448446
      2.08442     -1.20344     12.72382        -0.159187     -0.154540      0.012629
      2.08442      1.20344      9.33401        -1.136500      0.966310      0.528850
      4.16884      2.40688      3.39133        -0.148483      0.071809      0.008697
      4.16884      4.81376      0.00152        -1.032530      0.938944     -0.496510
      4.16884      2.40688      5.94420         1.375142     -0.740869      0.702294
      4.16884      4.81376      2.55439        -1.010054      0.944596      0.499931
      4.16884      2.40688     10.17095         1.389304     -0.767402     -0.559317
      4.16884      4.81376      6.78114        -1.256931      0.712963     -0.588865
      4.16884      2.40688     12.72382        -0.119855      0.177246     -0.063935
      4.16884      4.81376      9.33401        -1.294777      0.728695      0.646311
      6.25326      6.01720      3.39133         1.152435     -0.650613     -0.547915
      6.25326      8.42408      0.00152        -1.355599      0.459596     -0.552836
      6.25326      6.01720      5.94420         1.181060     -0.631175      0.505866
      6.25326      8.42408      2.55439        -1.312750      0.349048      0.454367
      6.25326      6.01720     10.17095         1.207619     -0.592887     -0.501151
      6.25326      8.42408      6.78114        -1.393374      0.406297     -0.492947
      6.25326      6.01720     12.72382         1.172309     -0.594942      0.571186
      6.25326      8.42408      9.33401        -1.368562      0.446823      0.665576
      4.16884     -4.81376      3.39133        -0.048609     -1.566085     -0.786282
      4.16884     -2.40688      0.00152         1.496233      0.754122     -0.828762
      4.16884     -4.81376      5.94420        -0.085922     -1.597020      0.820076
      4.16884     -2.40688      2.55439        -0.206001     -0.030847      0.076911
      4.16884     -4.81376     10.17095        -0.208666     -1.306678     -0.946140
      4.16884     -2.40688      6.78114        -0.127866     -0.087751     -0.065088
      4.16884     -4.81376     12.72382        -0.166531     -1.370674      0.870838
      4.16884     -2.40688      9.33401         1.491891      0.661757      0.792526
      6.25326     -1.20344      3.39133         1.482574     -0.835273     -0.349700
      6.25326      1.20344      0.00152         1.429051     -0.873323     -0.974784
      6.25326     -1.20344      5.94420         1.494643      1.067821      0.876309
      6.25326      1.20344      2.55439         1.403058      0.974451      0.495246
      6.25326     -1.20344     10.17095         0.492561      0.889024     -0.402818
      6.25326      1.20344      6.78114         0.619197      0.379749     -0.355408
      6.25326     -1.20344     12.72382         0.290575     -0.145457      0.028335
      6.25326      1.20344      9.33401         1.146587     -0.551371      0.536790
      8.33768      2.40688      3.39133         0.426993      0.263044      1.029590
      8.33768      4.81376      0.00152         0.122288     -0.560705      0.984920
      8.33768      2.40688      5.94420         0.052453     -0.939345     -0.693805
      8.33768      4.81376      2.55439        -0.013553     -0.166487     -0.931103
      8.33768      2.40688     10.17095        -0.797103     -0.193711     -0.015045
      8.33768      4.81376      6.78114         0.263335     -0.210070      1.054676
      8.33768      2.40688     12.72382         0.350414      0.421174     -0.408247
      8.33768      4.81376      9.33401         0.402320     -0.427926     -0.613816
      6.25326     -8.42408      3.39133        -0.927235      0.103290      0.098032
      6.25326     -6.01720      0.00152         0.741680     -0.410591      0.859226
      6.25326     -8.42408      5.94420        -0.633808      0.295870     -0.172975
      6.25326     -6.01720      2.55439         0.639067     -0.421247     -0.882783
      6.25326     -8.42408     10.17095        -0.590782      0.226594     -0.063978
      6.25326     -6.01720      6.78114         0.565388     -0.655437      1.248868
      6.25326     -8.42408     12.72382        -0.704318      0.220740     -0.101078
      6.25326     -6.01720      9.33401         0.562172     -0.462334     -1.213099
      8.33768     -4.81376      3.39133        -0.849644      0.249752      1.593499
      8.33768     -2.40688      0.00152         0.035549      0.058602      0.483658
      8.33768     -4.81376      5.94420        -0.739337      0.432381     -1.523038
      8.33768     -2.40688      2.55439         0.822553     -0.256713     -1.417868
      8.33768     -4.81376     10.17095        -0.453870      0.679773     -0.185557
      8.33768     -2.40688      6.78114         0.691315     -0.360638      1.099427
      8.33768     -4.81376     12.72382        -0.780179      0.555019     -0.147290
      8.33768     -2.40688      9.33401        -0.191467     -0.297921     -0.020585
     10.42210     -1.20344      3.39133        -0.550159      0.449472      0.483985
     10.42210      1.20344      0.00152        -0.032696     -0.583252      0.299768
     10.42210     -1.20344      5.94420        -0.487174      0.438420     -0.485530
     10.42210      1.20344      2.55439         0.513742     -0.038762     -0.580280
     10.42210     -1.20344     10.17095        -0.521237      0.534099     -0.154873
     10.42210      1.20344      6.78114        -0.300981      0.048694      0.289834
     10.42210     -1.20344     12.72382        -0.494259      0.196370      0.471361
     10.42210      1.20344      9.33401         0.307546     -0.123121     -0.612732
    total drift:                                0.001295     -0.000143      0.010589

  FREE ENERGIE OF THE ION-ELECTRON SYSTEM (eV)
  free  energy   TOTEN  =      -161.93903770 eV

  energy  without entropy=     -161.93690434  energy(sigma->0) =     -161.93797102