 vasp.6.4.2 20Jul23 (build Sep 17 2025 15:35:10) complex

 executed on             LinuxIFC date 2025.10.09  12:39:51

 INCAR:
   YSTEM = CdS Calculation
   PREC = Accurate
   ENCUT = 400
   ISTART = 0
   ICHARG = 2
   ISMEAR = 0
   SIGMA = 0.05
   EDIFF = 1E-6
   NELM = 100
   LREAL = .FALSE.
   GGA = PE
   LWAVE = .FALSE.
   LCHARG = .FALSE.

 POTCAR:    PAW_PBE Cd 06Sep2000
 POTCAR:    PAW_PBE S 06Sep2000
|           W    W    AA    RRRRR   N    N  II  N    N   GGGG   !!!           |
|           W    W   A  A   R    R  NN   N  II  NN   N  G    G  !!!           |
|           W    W  A    A  R    R  N N  N  II  N N  N  G       !!!           |
|           W WW W  AAAAAA  RRRRR   N  N N  II  N  N N  G  GGG   !            |
|           WW  WW  A    A  R   R   N   NN  II  N   NN  G    G                |
|           W    W  A    A  R    R  N    N  II  N    N   GGGG   !!!           |
|     For optimal performance we recommend to set                             |
|       NCORE = 2 up to number-of-cores-per-socket                            |
|     This setting can greatly improve the performance of VASP for DFT.       |
|     The default, NCORE=1 might be grossly inefficient on modern             |
|     multi-core architectures or massively parallel machines. Do your        |
|     Unfortunately you need to use the default for GW and RPA                |
|     calculations (for HF NCORE is supported but not extensively tested      |
|     yet).                                                                   |

   TITEL  = PAW_PBE Cd 06Sep2000
   POMASS =  112.411; ZVAL   =   12.000    mass and valenz
   ENMAX  =  274.336; ENMIN  =  205.752 eV

   TITEL  = PAW_PBE S 06Sep2000
   POMASS =   32.066; ZVAL   =    6.000    mass and valenz
   ENMAX  =  258.689; ENMIN  =  194.016 eV

  PAW_PBE Cd 06Sep2000                  :
  PAW_PBE S 06Sep2000                   :

 POSCAR: Cd S
  positions in direct lattice
 exchange correlation table for  LEXCH =        8
   RHO(1)=    0.500       N(1)  =     2000
   RHO(2)=  100.500       N(2)  =     4000

 ion  position               nearest neighbor table
   1  0.222  0.111  0.250-  51 2.55  63 2.55  59 2.55  50 2.55
   2  0.222  0.778  0.750-  61 2.55  57 2.55  47 2.55  60 2.55
   3  0.111  0.889  0.500-  58 2.55  50 2.55  44 2.55  61 2.55
   4  0.556  0.778  0.250-  49 2.55  48 2.55  45 2.55  70 2.55
   5  0.444  0.889  0.500-  70 2.55  58 2.55  62 2.55  47 2.55
   6  0.556  0.111  0.250-  63 2.55  38 2.55  49 2.55  62 2.55
   7  0.444  0.222  0.000-  64 2.55  52 2.55  68 2.55  63 2.55
   8  0.889  0.444  0.750-  40 2.55  43 2.55  57 2.55  42 2.55
   9  0.778  0.556  0.000-  42 2.55  67 2.55  68 2.55  41 2.55
  10  0.556  0.111  0.750-  65 2.55  40 2.55  47 2.55  64 2.55
  11  0.444  0.222  0.500-  62 2.55  50 2.55  66 2.55  65 2.55
  12  0.556  0.444  0.250-  41 2.55  63 2.55  48 2.55  66 2.55
  13  0.444  0.556  0.000-  56 2.55  71 2.55  68 2.55  48 2.55
  14  0.778  0.222  0.500-  37 2.55  39 2.55  62 2.55  40 2.55
  15  0.889  0.111  0.750-  40 2.55  53 2.55  72 2.55  46 2.55
  16  0.889  0.444  0.250-  38 2.55  41 2.55  55 2.55  39 2.55
  17  0.556  0.444  0.750-  43 2.55  65 2.55  69 2.55  68 2.55
  18  0.778  0.556  0.500-  39 2.55  44 2.55  66 2.55  43 2.55
  19  0.222  0.778  0.250-  59 2.55  55 2.55  49 2.55  58 2.55
  20  0.111  0.222  0.000-  52 2.55  56 2.55  46 2.55  51 2.55
  21  0.778  0.889  0.500-  44 2.55  70 2.55  37 2.55  72 2.55
  22  0.889  0.778  0.750-  72 2.55  43 2.55  61 2.55  67 2.55
  23  0.222  0.111  0.750-  53 2.55  65 2.55  61 2.55  52 2.55
  24  0.111  0.222  0.500-  50 2.55  54 2.55  37 2.55  53 2.55
  25  0.556  0.778  0.750-  47 2.55  69 2.55  72 2.55  71 2.55
  26  0.111  0.889  0.000-  60 2.55  52 2.55  67 2.55  59 2.55
  27  0.889  0.111  0.250-  38 2.55  45 2.55  51 2.55  37 2.55
  28  0.111  0.556  0.000-  56 2.55  60 2.55  42 2.55  55 2.55
  29  0.778  0.889  0.000-  67 2.55  71 2.55  46 2.55  45 2.55
  30  0.889  0.778  0.250-  45 2.55  41 2.55  59 2.55  44 2.55
  31  0.222  0.444  0.750-  53 2.55  57 2.55  69 2.55  56 2.55
  32  0.111  0.556  0.500-  54 2.55  58 2.55  39 2.55  57 2.55
  33  0.778  0.222  0.000-  46 2.55  42 2.55  64 2.55  38 2.55
  34  0.444  0.889  0.000-  71 2.55  60 2.55  64 2.55  49 2.55
  35  0.222  0.444  0.250-  48 2.55  51 2.55  55 2.55  54 2.55
  36  0.444  0.556  0.500-  54 2.55  70 2.55  66 2.55  69 2.55
  37  0.889  0.111  0.438-  14 2.55  21 2.55  24 2.55  27 2.55
  38  0.778  0.222  0.188-  27 2.55  16 2.55   6 2.55  33 2.55
  39  0.889  0.444  0.438-  14 2.55  18 2.55  32 2.55  16 2.55
  40  0.778  0.222  0.688-  15 2.55  10 2.55   8 2.55  14 2.55
  41  0.778  0.556  0.188-  12 2.55  16 2.55  30 2.55   9 2.55
  42  0.889  0.444  0.938-   9 2.55  33 2.55  28 2.55   8 2.55
  43  0.778  0.556  0.688-   8 2.55  17 2.55  22 2.55  18 2.55
  44  0.889  0.778  0.438-  21 2.55  18 2.55   3 2.55  30 2.55
  45  0.778  0.889  0.188-  30 2.55   4 2.55  27 2.55  29 2.55
  46  0.889  0.111  0.938-  33 2.55  29 2.55  20 2.55  15 2.55
  47  0.444  0.889  0.688-  25 2.55   2 2.55  10 2.55   5 2.55
  48  0.444  0.556  0.188-   4 2.55  35 2.55  12 2.55  13 2.55
  49  0.444  0.889  0.188-   4 2.55  19 2.55   6 2.55  34 2.55
  50  0.222  0.111  0.438-  24 2.55  11 2.55   3 2.55   1 2.55
  51  0.111  0.222  0.188-   1 2.55  35 2.55  27 2.55  20 2.55
  52  0.222  0.111  0.938-  20 2.55   7 2.55  26 2.55  23 2.55
  53  0.111  0.222  0.688-  23 2.55  31 2.55  15 2.55  24 2.55
  54  0.222  0.444  0.438-  24 2.55  32 2.55  36 2.55  35 2.55
  55  0.111  0.556  0.188-  19 2.55  35 2.55  16 2.55  28 2.55
  56  0.222  0.444  0.938-  13 2.55  20 2.55  28 2.55  31 2.55
  57  0.111  0.556  0.688-   2 2.55  31 2.55   8 2.55  32 2.55
  58  0.222  0.778  0.438-   3 2.55   5 2.55  32 2.55  19 2.55
  59  0.111  0.889  0.188-  19 2.55   1 2.55  30 2.55  26 2.55
  60  0.222  0.778  0.938-  26 2.55  28 2.55  34 2.55   2 2.55
  61  0.111  0.889  0.688-   2 2.55  22 2.55  23 2.55   3 2.55
  62  0.556  0.111  0.438-  11 2.55  14 2.55   5 2.55   6 2.55
  63  0.444  0.222  0.188-   6 2.55   1 2.55  12 2.55   7 2.55
  64  0.556  0.111  0.938-   7 2.55  33 2.55  34 2.55  10 2.55
  65  0.444  0.222  0.688-  10 2.55  17 2.55  23 2.55  11 2.55
  66  0.556  0.444  0.438-  11 2.55  18 2.55  36 2.55  12 2.55
  67  0.889  0.778  0.938-  29 2.55   9 2.55  26 2.55  22 2.55
  68  0.556  0.444  0.938-   7 2.55   9 2.55  13 2.55  17 2.55
  69  0.444  0.556  0.688-  25 2.55  31 2.55  17 2.55  36 2.55
  70  0.556  0.778  0.438-   5 2.55  21 2.55  36 2.55   4 2.55
  71  0.556  0.778  0.938-  34 2.55  29 2.55  13 2.55  25 2.55
  72  0.778  0.889  0.688-  22 2.55  25 2.55  15 2.55  21 2.55

  LATTYP: Found a hexagonal cell.
 ALAT       =    12.5065142985
 C/A-ratio  =     1.0841737751

  Lattice vectors:

 A1 = (   6.2532571493, -10.8309590953,   0.0000000000)
 A2 = (   6.2532571493,  10.8309590953,   0.0000000000)
 A3 = (   0.0000000000,   0.0000000000,  13.5592348200)

Analysis of symmetry for initial positions (statically):
 Subroutine PRICEL returns following result:

[...]

  18 primitive cells build up your supercell.

 Routine SETGRP: Setting up the symmetry group for a
 hexagonal supercell.

 Subroutine GETGRP returns: Found 12 space group operations
 (whereof  6 operations were pure point group operations)
 out of a pool of 24 trial point group operations.

The static configuration has the point symmetry C_3v.
 The point group associated with its full space group is C_6v.

Analysis of symmetry for dynamics (positions and initial velocities):
 Subroutine PRICEL returns following result:

  LATTYP: Found a hexagonal cell.
 ALAT       =     4.1688380995
 C/A-ratio  =     1.6262606626

  Lattice vectors:

 A1 = (   2.0844190498,  -3.6103196984,   0.0000000000)
 A2 = (   2.0844190498,   3.6103196984,   0.0000000000)
 A3 = (   0.0000000000,   0.0000000000,   6.7796174100)

  18 primitive cells build up your supercell.

 Routine SETGRP: Setting up the symmetry group for a
 hexagonal supercell.

 Subroutine GETGRP returns: Found 12 space group operations
 (whereof  6 operations were pure point group operations)
 out of a pool of 24 trial point group operations.

The dynamic configuration has the point symmetry C_3v.
 The point group associated with its full space group is C_6v.

 Subroutine INISYM returns: Found 12 space group operations
 (whereof  6 operations are pure point group operations),
 and found    18 'primitive' translations

                                     Primitive cell

  volume of cell :     102.0389

  direct lattice vectors                    reciprocal lattice vectors
     2.084419050 -3.610319698  0.000000000     0.239874991 -0.138491890  0.000000000
     2.084419050  3.610319698  0.000000000     0.239874991  0.138491890  0.000000000
     0.000000000  0.000000000  6.779617410     0.000000000  0.000000000  0.147500949

  length of vectors
     4.168838100  4.168838100  6.779617410     0.276983781  0.276983781  0.147500949

  position of ions in fractional coordinates (direct lattice)
     0.666666667  0.333333333  0.500224370
     0.333333333  0.666666667  0.000224370
     0.666666667  0.333333333  0.876775630
     0.333333333  0.666666667  0.376775630

  ion indices of the primitive-cell ions
   primitive index   ion index
                 1           1
                 2          24
                 3          50
                 4          51

 KPOINTS: Automatic mesh

Automatic generation of k-mesh.
 Grid dimensions read from file:
 generate k-points for:    1    1    1

 Generating k-lattice:

  Cartesian coordinates                     Fractional coordinates (reciprocal lattice)
     0.079958330 -0.046163963  0.000000000     1.000000000  0.000000000  0.000000000
     0.079958330  0.046163963  0.000000000     0.000000000  1.000000000  0.000000000
     0.000000000  0.000000000  0.073750474     0.000000000  0.000000000  1.000000000

  Length of vectors
     0.092327927  0.092327927  0.073750474

  Shift w.r.t. Gamma in fractional coordinates (k-lattice)
     0.000000000  0.000000000  0.000000000

 Subroutine IBZKPT returns following result:

 Found      1 irreducible k-points:

 Following reciprocal coordinates:
            Coordinates               Weight
  0.000000  0.000000  0.000000      1.000000

 Following cartesian coordinates:
            Coordinates               Weight
  0.000000  0.000000  0.000000      1.000000

 SYSTEM =  unknown system
 POSCAR =  Cd S

 Startparameter for this run:
   NWRITE =      2    write-flag & timer
   PREC   = accura    normal or accurate (medium, high low for compatibility)
   ISTART =      0    job   : 0-new  1-cont  2-samecut
   ICHARG =      2    charge: 1-file 2-atom 10-const
   ISPIN  =      1    spin polarized calculation?
   LNONCOLLINEAR =      F non collinear calculations
   LSORBIT =      F    spin-orbit coupling
   INIWAV =      1    electr: 0-lowe 1-rand  2-diag
   LASPH  =      F    aspherical Exc in radial PAW
 Electronic Relaxation 1
   ENCUT  =  400.0 eV  29.40 Ry    5.42 a.u.  20.39 20.39 22.11*2*pi/ulx,y,z
   ENINI  =  400.0     initial cutoff
   ENAUG  =  456.1 eV  augmentation charge cutoff
   NELM   =    100;   NELMIN=  2; NELMDL= -5     # of ELM steps
[...]
  Fock        0.00000     0.00000     0.00000     0.00000     0.00000     0.00000
  Total      18.77119    18.77119     9.68202     0.00000     0.00000    -0.00000
  in kB      16.37434    16.37434     8.44575     0.00000     0.00000    -0.00000

 VOLUME and BASIS-vectors are now :
  energy-cutoff  :      400.00
  volume of cell :     1836.70
      direct lattice vectors                 reciprocal lattice vectors
     6.253257149-10.830959095  0.000000000     0.079958330 -0.046163963  0.000000000
     6.253257149 10.830959095  0.000000000     0.079958330  0.046163963  0.000000000
     0.000000000  0.000000000 13.559234820     0.000000000  0.000000000  0.073750474

  length of vectors
    12.506514299 12.506514299 13.559234820     0.092327927  0.092327927  0.073750474

 FORCES acting on ions
    electron-ion (+dipol)            ewald-force                    non-local-force                 convergence-correction
   0.278E-07 -.468E-06 -.163E+01   -.687E-10 0.921E-11 0.194E+01   -.234E-22 -.603E-22 -.260E+00   0.160E-11 0.396E-09 -.240E-04
   0.278E-07 -.468E-06 -.163E+01   -.167E-12 0.472E-10 0.194E+01   0.123E-22 -.403E-22 -.260E+00   -.169E-11 0.396E-09 -.240E-04
   0.278E-07 0.468E-06 -.163E+01   -.163E-12 0.287E-10 0.194E+01   -.217E-22 0.909E-22 -.260E+00   -.639E-12 -.398E-09 -.240E-04
   0.278E-07 -.468E-06 -.163E+01   0.349E-10 0.294E-10 0.194E+01   -.491E-22 -.830E-22 -.260E+00   -.201E-11 0.395E-09 -.240E-04
   0.278E-07 0.468E-06 -.163E+01   0.362E-10 0.542E-11 0.194E+01   -.203E-23 0.754E-22 -.260E+00   -.111E-11 -.395E-09 -.240E-04
   0.278E-07 -.468E-06 -.163E+01   -.289E-10 -.158E-10 0.194E+01   -.246E-22 -.601E-22 -.260E+00   0.139E-11 0.399E-09 -.240E-04
   0.278E-07 0.468E-06 -.163E+01   -.324E-10 -.298E-10 0.194E+01   0.384E-22 0.112E-21 -.260E+00   0.172E-11 -.395E-09 -.240E-04
   0.278E-07 -.468E-06 -.163E+01   0.284E-10 -.350E-11 0.194E+01   0.300E-22 -.692E-22 -.260E+00   0.610E-12 0.398E-09 -.240E-04
   0.278E-07 0.468E-06 -.163E+01   0.349E-10 -.383E-10 0.194E+01   -.352E-23 0.109E-21 -.260E+00   -.864E-12 -.397E-09 -.240E-04
   0.278E-07 -.468E-06 -.163E+01   -.284E-10 -.367E-11 0.194E+01   0.740E-23 -.469E-22 -.260E+00   0.996E-12 0.399E-09 -.240E-04
   0.278E-07 0.468E-06 -.163E+01   -.327E-10 -.311E-10 0.194E+01   -.649E-22 0.111E-21 -.260E+00   0.193E-11 -.396E-09 -.240E-04
   0.278E-07 -.468E-06 -.163E+01   0.168E-11 0.486E-11 0.194E+01   -.239E-22 -.143E-22 -.260E+00   0.164E-12 0.395E-09 -.240E-04
   0.278E-07 0.468E-06 -.163E+01   -.190E-11 0.197E-11 0.194E+01   -.247E-24 0.740E-22 -.260E+00   -.864E-12 -.397E-09 -.240E-04
   0.278E-07 0.468E-06 -.163E+01   -.130E-10 -.392E-10 0.194E+01   -.734E-22 0.102E-21 -.260E+00   0.176E-11 -.393E-09 -.240E-04
   0.278E-07 -.468E-06 -.163E+01   -.142E-12 -.287E-10 0.194E+01   -.273E-22 -.442E-22 -.260E+00   0.140E-11 0.397E-09 -.240E-04
   0.278E-07 -.468E-06 -.163E+01   0.345E-10 -.101E-10 0.194E+01   -.132E-22 -.648E-22 -.260E+00   0.307E-12 0.398E-09 -.240E-04
   0.278E-07 -.468E-06 -.163E+01   0.159E-11 0.129E-10 0.194E+01   0.404E-22 -.107E-21 -.260E+00   0.256E-12 0.395E-09 -.240E-04
   0.278E-07 0.468E-06 -.163E+01   0.367E-10 -.307E-10 0.194E+01   -.254E-22 0.365E-22 -.260E+00   -.997E-12 -.397E-09 -.240E-04
   0.278E-07 -.468E-06 -.163E+01   0.769E-11 0.400E-10 0.194E+01   -.397E-22 -.680E-22 -.260E+00   -.177E-11 0.396E-09 -.240E-04
   0.278E-07 0.468E-06 -.163E+01   -.630E-10 -.739E-11 0.194E+01   0.622E-23 0.111E-21 -.260E+00   0.234E-11 -.396E-09 -.240E-04
   0.278E-07 0.468E-06 -.163E+01   0.609E-10 0.448E-11 0.194E+01   -.910E-23 0.622E-22 -.260E+00   -.129E-11 -.398E-09 -.240E-04
   0.278E-07 -.468E-06 -.163E+01   0.532E-10 0.608E-11 0.194E+01   0.276E-24 -.441E-22 -.260E+00   -.190E-11 0.394E-09 -.240E-04
   0.278E-07 -.468E-06 -.163E+01   -.533E-10 0.325E-11 0.194E+01   -.727E-23 -.556E-22 -.260E+00   0.157E-11 0.395E-09 -.240E-04
   0.278E-07 0.468E-06 -.163E+01   -.685E-10 -.428E-11 0.194E+01   -.478E-22 0.776E-22 -.260E+00   0.239E-11 -.396E-09 -.240E-04
   0.278E-07 -.468E-06 -.163E+01   0.320E-10 0.549E-11 0.194E+01   -.123E-22 0.156E-22 -.260E+00   -.226E-11 0.395E-09 -.240E-04
   0.278E-07 0.468E-06 -.163E+01   0.622E-14 0.288E-10 0.194E+01   -.445E-22 0.995E-22 -.260E+00   -.569E-12 -.397E-09 -.240E-04
   0.278E-07 -.468E-06 -.163E+01   -.400E-13 -.287E-10 0.194E+01   0.454E-23 0.850E-23 -.260E+00   0.158E-11 0.397E-09 -.240E-04
   0.278E-07 0.468E-06 -.163E+01   -.297E-10 0.204E-10 0.194E+01   -.175E-22 0.144E-21 -.260E+00   -.334E-12 -.395E-09 -.240E-04
   0.278E-07 0.468E-06 -.163E+01   0.593E-10 -.959E-11 0.194E+01   -.937E-22 0.154E-21 -.260E+00   -.116E-11 -.398E-09 -.240E-04
   0.278E-07 -.468E-06 -.163E+01   0.537E-10 0.376E-11 0.194E+01   -.368E-22 -.105E-21 -.260E+00   -.184E-11 0.394E-09 -.240E-04
   0.278E-07 -.468E-06 -.163E+01   -.307E-10 0.126E-10 0.194E+01   0.451E-22 -.744E-22 -.260E+00   0.775E-12 0.396E-09 -.240E-04
   0.278E-07 0.468E-06 -.163E+01   -.236E-10 0.151E-10 0.194E+01   -.333E-22 0.902E-22 -.260E+00   -.362E-12 -.395E-09 -.240E-04
   0.278E-07 0.468E-06 -.163E+01   0.628E-11 -.252E-10 0.194E+01   0.840E-23 0.104E-21 -.260E+00   0.180E-11 -.393E-09 -.240E-04
   0.278E-07 0.468E-06 -.163E+01   0.238E-10 0.142E-10 0.194E+01   -.660E-22 0.136E-21 -.260E+00   -.117E-11 -.395E-09 -.240E-04
   0.278E-07 -.468E-06 -.163E+01   -.315E-10 0.126E-10 0.194E+01   -.400E-22 -.592E-22 -.260E+00   0.345E-12 0.396E-09 -.240E-04
   0.278E-07 0.468E-06 -.163E+01   0.711E-14 0.533E-12 0.194E+01   -.229E-22 0.683E-22 -.260E+00   -.790E-12 -.398E-09 -.240E-04
   -.130E-06 -.202E-06 0.159E+01   0.160E-13 -.129E-10 -.194E+01   -.251E-21 -.132E-21 0.304E+00   0.666E-12 -.365E-09 -.312E-04
   -.130E-06 0.202E-06 0.159E+01   0.955E-14 -.108E-10 -.194E+01   -.272E-22 0.130E-21 0.304E+00   0.906E-12 0.367E-09 -.312E-04
   -.130E-06 -.202E-06 0.159E+01   0.272E-10 -.378E-12 -.194E+01   -.189E-21 0.648E-22 0.304E+00   0.204E-12 -.365E-09 -.312E-04
   -.130E-06 0.202E-06 0.159E+01   0.439E-12 -.111E-10 -.194E+01   0.395E-22 0.226E-21 0.304E+00   0.855E-12 0.367E-09 -.312E-04
   -.130E-06 0.202E-06 0.159E+01   -.552E-11 -.917E-11 -.194E+01   0.132E-21 0.494E-21 0.304E+00   -.494E-12 0.365E-09 -.312E-04
   -.130E-06 -.202E-06 0.159E+01   0.276E-10 -.759E-12 -.194E+01   0.351E-21 -.241E-23 0.304E+00   0.240E-12 -.365E-09 -.312E-04
   -.130E-06 0.202E-06 0.159E+01   -.551E-11 -.919E-11 -.194E+01   -.631E-22 0.756E-23 0.304E+00   -.448E-12 0.365E-09 -.312E-04
   -.130E-06 -.202E-06 0.159E+01   0.174E-10 -.305E-11 -.194E+01   -.781E-22 -.109E-21 0.304E+00   -.940E-12 -.367E-09 -.312E-04
   -.130E-06 0.202E-06 0.159E+01   0.198E-10 0.116E-11 -.194E+01   -.448E-24 0.975E-22 0.304E+00   -.515E-12 0.365E-09 -.312E-04
   -.130E-06 -.202E-06 0.159E+01   0.195E-13 -.130E-10 -.194E+01   0.359E-21 -.838E-22 0.304E+00   0.688E-12 -.365E-09 -.312E-04
   -.130E-06 0.202E-06 0.159E+01   0.249E-10 -.302E-12 -.194E+01   0.159E-21 0.206E-21 0.304E+00   -.612E-12 0.366E-09 -.312E-04
   -.130E-06 0.202E-06 0.159E+01   -.285E-11 -.987E-11 -.194E+01   0.119E-21 0.433E-21 0.304E+00   -.415E-12 0.365E-09 -.312E-04
   -.130E-06 0.202E-06 0.159E+01   0.235E-10 0.206E-11 -.194E+01   0.151E-21 0.175E-22 0.304E+00   -.498E-12 0.366E-09 -.312E-04
   -.130E-06 -.202E-06 0.159E+01   -.200E-10 -.208E-11 -.194E+01   -.301E-21 -.164E-21 0.304E+00   0.822E-12 -.366E-09 -.312E-04
   -.130E-06 0.202E-06 0.159E+01   -.182E-10 0.174E-11 -.194E+01   -.875E-22 0.366E-21 0.304E+00   0.105E-11 0.365E-09 -.312E-04
   -.130E-06 -.202E-06 0.159E+01   -.201E-10 -.210E-11 -.194E+01   0.359E-21 0.673E-23 0.304E+00   0.724E-12 -.366E-09 -.312E-04
   -.130E-06 0.202E-06 0.159E+01   -.196E-10 0.258E-11 -.194E+01   0.573E-22 0.131E-21 0.304E+00   0.119E-11 0.365E-09 -.312E-04
   -.130E-06 -.202E-06 0.159E+01   0.777E-11 0.110E-10 -.194E+01   -.184E-21 0.735E-22 0.304E+00   0.318E-12 -.365E-09 -.312E-04
   -.130E-06 0.202E-06 0.159E+01   -.236E-10 0.106E-11 -.194E+01   0.210E-21 0.437E-21 0.304E+00   -.289E-12 0.366E-09 -.312E-04
   -.130E-06 -.202E-06 0.159E+01   0.795E-11 0.114E-10 -.194E+01   0.434E-21 -.587E-22 0.304E+00   0.341E-12 -.365E-09 -.312E-04
   -.130E-06 0.202E-06 0.159E+01   -.236E-10 0.104E-11 -.194E+01   -.471E-22 0.439E-23 0.304E+00   -.124E-12 0.366E-09 -.312E-04
   -.130E-06 -.202E-06 0.159E+01   -.283E-11 0.967E-11 -.194E+01   -.165E-21 -.123E-21 0.304E+00   -.831E-12 -.365E-09 -.312E-04
   -.130E-06 0.202E-06 0.159E+01   0.542E-13 0.129E-10 -.194E+01   0.158E-21 0.186E-22 0.304E+00   -.283E-12 0.365E-09 -.312E-04
   -.130E-06 -.202E-06 0.159E+01   -.282E-11 0.969E-11 -.194E+01   0.421E-21 0.841E-22 0.304E+00   -.754E-12 -.365E-09 -.312E-04
   -.130E-06 0.202E-06 0.159E+01   0.480E-13 0.129E-10 -.194E+01   -.275E-22 0.118E-21 0.304E+00   -.322E-12 0.365E-09 -.312E-04
   -.130E-06 -.202E-06 0.159E+01   -.240E-10 -.275E-11 -.194E+01   -.278E-21 -.108E-21 0.304E+00   0.642E-12 -.364E-09 -.312E-04
   -.130E-06 0.202E-06 0.159E+01   0.725E-11 -.691E-11 -.194E+01   -.151E-21 0.171E-21 0.304E+00   0.898E-12 0.366E-09 -.312E-04
   -.130E-06 -.202E-06 0.159E+01   -.240E-10 -.277E-11 -.194E+01   0.365E-21 0.310E-23 0.304E+00   0.529E-12 -.364E-09 -.312E-04
   -.130E-06 0.202E-06 0.159E+01   0.606E-11 -.966E-11 -.194E+01   0.912E-22 0.368E-21 0.304E+00   0.891E-12 0.366E-09 -.312E-04
   -.130E-06 -.202E-06 0.159E+01   0.150E-11 0.113E-10 -.194E+01   -.248E-21 0.723E-22 0.304E+00   0.134E-12 -.366E-09 -.312E-04
   -.130E-06 -.202E-06 0.159E+01   0.173E-10 -.448E-11 -.194E+01   0.340E-21 0.604E-22 0.304E+00   -.856E-12 -.367E-09 -.312E-04
   -.130E-06 -.202E-06 0.159E+01   0.143E-11 0.114E-10 -.194E+01   0.407E-21 -.112E-21 0.304E+00   0.148E-12 -.366E-09 -.312E-04
   -.130E-06 0.202E-06 0.159E+01   0.236E-11 -.843E-11 -.194E+01   -.643E-23 0.151E-22 0.304E+00   -.388E-12 0.365E-09 -.312E-04
   -.130E-06 -.202E-06 0.159E+01   -.758E-11 0.770E-11 -.194E+01   -.846E-23 -.100E-21 0.304E+00   -.975E-12 -.366E-09 -.312E-04
   -.130E-06 -.202E-06 0.159E+01   -.761E-11 0.770E-11 -.194E+01   0.391E-21 -.434E-22 0.304E+00   -.102E-11 -.366E-09 -.312E-04
   -.130E-06 0.202E-06 0.159E+01   0.159E-10 0.340E-11 -.194E+01   0.120E-21 0.126E-21 0.304E+00   -.679E-12 0.365E-09 -.312E-04
   -.369E-05 -.234E-09 -.158E+01   0.526E-15 -.136E-12 -.115E-12   0.192E-20 0.348E-20 0.157E+01   0.210E-11 0.640E-12 -.199E-02

 POSITION                                       TOTAL-FORCE (eV/Angst)
      2.08442     -1.20344      3.39133        -0.000000     -0.000000      0.045806
      6.25326      6.01720     10.17095         0.000000      0.000000      0.045806
      6.25326      8.42408      6.78114        -0.000000      0.000000      0.045806
      8.33768      2.40688      3.39133         0.000000      0.000000      0.045806
      8.33768      4.81376      6.78114         0.000000      0.000000      0.045806
      4.16884     -4.81376      3.39133         0.000000     -0.000000      0.045806
      4.16884     -2.40688      0.00152        -0.000000     -0.000000      0.045806
      8.33768     -4.81376     10.17095         0.000000      0.000000      0.045806
      8.33768     -2.40688      0.00152         0.000000     -0.000000      0.045806
      4.16884     -4.81376     10.17095        -0.000000     -0.000000      0.045806
      4.16884     -2.40688      6.78114         0.000000     -0.000000      0.045806
      6.25326     -1.20344      3.39133         0.000000     -0.000000      0.045806
      6.25326      1.20344      0.00152        -0.000000     -0.000000      0.045806
      6.25326     -6.01720      6.78114        -0.000000     -0.000000      0.045806
      6.25326     -8.42408     10.17095        -0.000000      0.000000      0.045806
      8.33768     -4.81376      3.39133         0.000000      0.000000      0.045806
      6.25326     -1.20344     10.17095         0.000000      0.000000      0.045806
      8.33768     -2.40688      6.78114        -0.000000      0.000000      0.045806
      6.25326      6.01720      3.39133        -0.000000     -0.000000      0.045806
      2.08442      1.20344      0.00152        -0.000000     -0.000000      0.045806
     10.42210      1.20344      6.78114        -0.000000      0.000000      0.045806
     10.42210     -1.20344     10.17095         0.000000      0.000000      0.045806
      2.08442     -1.20344     10.17095         0.000000      0.000000      0.045806
      2.08442      1.20344      6.78114        -0.000000     -0.000000      0.045806
      8.33768      2.40688     10.17095         0.000000      0.000000      0.045806
      6.25326      8.42408      0.00152        -0.000000     -0.000000      0.045806
      6.25326     -8.42408      3.39133        -0.000000     -0.000000      0.045806
      4.16884      4.81376      0.00152        -0.000000      0.000000      0.045806
     10.42210      1.20344      0.00152        -0.000000      0.000000      0.045806
     10.42210     -1.20344      3.39133        -0.000000     -0.000000      0.045806
      4.16884      2.40688     10.17095         0.000000      0.000000      0.045806
      4.16884      4.81376      6.78114        -0.000000      0.000000      0.045806
      6.25326     -6.01720      0.00152        -0.000000      0.000000      0.045806
      8.33768      4.81376      0.00152         0.000000      0.000000      0.045806
      4.16884      2.40688      3.39133         0.000000      0.000000      0.045806
      6.25326      1.20344      6.78114        -0.000000      0.000000      0.045806
      6.25326     -8.42408      5.94420        -0.000000     -0.000000     -0.045806
      6.25326     -6.01720      2.55439        -0.000000     -0.000000     -0.045806
      8.33768     -4.81376      5.94420         0.000000      0.000000     -0.045806
      6.25326     -6.01720      9.33401         0.000000     -0.000000     -0.045806
      8.33768     -2.40688      2.55439        -0.000000     -0.000000     -0.045806
      8.33768     -4.81376     12.72382         0.000000      0.000000     -0.045806
      8.33768     -2.40688      9.33401         0.000000     -0.000000     -0.045806
     10.42210     -1.20344      5.94420        -0.000000      0.000000     -0.045806
     10.42210      1.20344      2.55439        -0.000000     -0.000000     -0.045806
      6.25326     -8.42408     12.72382         0.000000      0.000000     -0.045806
      8.33768      4.81376      9.33401         0.000000     -0.000000     -0.045806
      6.25326      1.20344      2.55439        -0.000000     -0.000000     -0.045806
      8.33768      4.81376      2.55439        -0.000000     -0.000000     -0.045806
      2.08442     -1.20344      5.94420         0.000000      0.000000     -0.045806
      2.08442      1.20344      2.55439        -0.000000     -0.000000     -0.045806
      2.08442     -1.20344     12.72382         0.000000      0.000000     -0.045806
      2.08442      1.20344      9.33401         0.000000     -0.000000     -0.045806
      4.16884      2.40688      5.94420         0.000000      0.000000     -0.045806
      4.16884      4.81376      2.55439        -0.000000     -0.000000     -0.045806
      4.16884      2.40688     12.72382         0.000000      0.000000     -0.045806
      4.16884      4.81376      9.33401         0.000000     -0.000000     -0.045806
      6.25326      6.01720      5.94420        -0.000000      0.000000     -0.045806
      6.25326      8.42408      2.55439        -0.000000     -0.000000     -0.045806
      6.25326      6.01720     12.72382         0.000000      0.000000     -0.045806
      6.25326      8.42408      9.33401         0.000000     -0.000000     -0.045806
      4.16884     -4.81376      5.94420         0.000000      0.000000     -0.045806
      4.16884     -2.40688      2.55439        -0.000000     -0.000000     -0.045806
      4.16884     -4.81376     12.72382         0.000000      0.000000     -0.045806
      4.16884     -2.40688      9.33401         0.000000     -0.000000     -0.045806
      6.25326     -1.20344      5.94420         0.000000      0.000000     -0.045806
     10.42210     -1.20344     12.72382         0.000000      0.000000     -0.045806
      6.25326     -1.20344     12.72382         0.000000      0.000000     -0.045806
      6.25326      1.20344      9.33401         0.000000     -0.000000     -0.045806
      8.33768      2.40688      5.94420        -0.000000      0.000000     -0.045806
      8.33768      2.40688     12.72382         0.000000      0.000000     -0.045806
     10.42210      1.20344      9.33401         0.000000     -0.000000     -0.045806
    total drift:                               -0.000004     -0.000000     -0.013897

  FREE ENERGIE OF THE ION-ELECTRON SYSTEM (eV)
  free  energy   TOTEN  =      -218.26481275 eV

  energy  without entropy=     -218.26481275  energy(sigma->0) =     -218.26481275