 vasp.6.4.2 20Jul23 (build Sep 17 2025 15:35:10) complex

 executed on             LinuxIFC date 2025.10.01  23:07:12

 INCAR:
   YSTEM = CdS Calculation
   PREC = Accurate
   ENCUT = 400
   ISTART = 0
   ICHARG = 2
   ISMEAR = 0
   SIGMA = 0.05
   EDIFF = 1E-6
   NELM = 100
   LREAL = .FALSE.
   GGA = PS
   LWAVE = .FALSE.
   LCHARG = .FALSE.

 POTCAR:    PAW_PBE Cd 06Sep2000
 POTCAR:    PAW_PBE S 06Sep2000
|           W    W    AA    RRRRR   N    N  II  N    N   GGGG   !!!           |
|           W    W   A  A   R    R  NN   N  II  NN   N  G    G  !!!           |
|           W    W  A    A  R    R  N N  N  II  N N  N  G       !!!           |
|           W WW W  AAAAAA  RRRRR   N  N N  II  N  N N  G  GGG   !            |
|           WW  WW  A    A  R   R   N   NN  II  N   NN  G    G                |
|           W    W  A    A  R    R  N    N  II  N    N   GGGG   !!!           |
|     For optimal performance we recommend to set                             |
|       NCORE = 2 up to number-of-cores-per-socket                            |
|     This setting can greatly improve the performance of VASP for DFT.       |
|     The default, NCORE=1 might be grossly inefficient on modern             |
|     multi-core architectures or massively parallel machines. Do your        |
|     Unfortunately you need to use the default for GW and RPA                |
|     calculations (for HF NCORE is supported but not extensively tested      |
|     yet).                                                                   |

   TITEL  = PAW_PBE Cd 06Sep2000
   POMASS =  112.411; ZVAL   =   12.000    mass and valenz
   ENMAX  =  274.336; ENMIN  =  205.752 eV

   TITEL  = PAW_PBE S 06Sep2000
   POMASS =   32.066; ZVAL   =    6.000    mass and valenz
   ENMAX  =  258.689; ENMIN  =  194.016 eV

  PAW_PBE Cd 06Sep2000                  :
  PAW_PBE S 06Sep2000                   :

 POSCAR: Cd S
  positions in direct lattice
  velocities in cartesian coordinates
 exchange correlation table for  LEXCH =       14
   RHO(1)=    0.500       N(1)  =     2000
   RHO(2)=  100.500       N(2)  =     4000

 ion  position               nearest neighbor table
   1  0.222  0.111  0.250-   4 2.55  28 2.55  20 2.55   3 2.55
   2  0.111  0.222  0.000-   7 2.55  15 2.55  55 2.55   4 2.55
   3  0.222  0.111  0.438-   6 2.55  30 2.55  22 2.55   1 2.55
   4  0.111  0.222  0.188-   1 2.55   9 2.55  49 2.55   2 2.55
   5  0.222  0.111  0.750-   8 2.55  32 2.55  24 2.55   7 2.55
   6  0.111  0.222  0.500-   3 2.55  11 2.55  51 2.55   8 2.55
   7  0.222  0.111  0.938-   2 2.55  26 2.55  18 2.55   5 2.55
   8  0.111  0.222  0.688-   5 2.55  13 2.55  53 2.55   6 2.55
   9  0.222  0.444  0.250-   4 2.55  12 2.55  36 2.55  11 2.55
  10  0.111  0.556  0.000-  15 2.55  23 2.55  63 2.55  12 2.55
  11  0.222  0.444  0.438-   6 2.55  14 2.55  38 2.55   9 2.55
  12  0.111  0.556  0.188-   9 2.55  17 2.55  57 2.55  10 2.55
  13  0.222  0.444  0.750-   8 2.55  16 2.55  40 2.55  15 2.55
  14  0.111  0.556  0.500-  11 2.55  19 2.55  59 2.55  16 2.55
  15  0.222  0.444  0.938-   2 2.55  10 2.55  34 2.55  13 2.55
  16  0.111  0.556  0.688-  13 2.55  21 2.55  61 2.55  14 2.55
  17  0.222  0.778  0.250-  20 2.55  12 2.55  44 2.55  19 2.55
  18  0.111  0.889  0.000-  23 2.55   7 2.55  71 2.55  20 2.55
  19  0.222  0.778  0.438-  22 2.55  14 2.55  46 2.55  17 2.55
  20  0.111  0.889  0.188-  17 2.55   1 2.55  65 2.55  18 2.55
  21  0.222  0.778  0.750-  24 2.55  16 2.55  48 2.55  23 2.55
  22  0.111  0.889  0.500-  19 2.55   3 2.55  67 2.55  24 2.55
  23  0.222  0.778  0.938-  18 2.55  10 2.55  42 2.55  21 2.55
  24  0.111  0.889  0.688-  21 2.55   5 2.55  69 2.55  22 2.55
  25  0.556  0.111  0.250-  28 2.55  52 2.55  44 2.55  27 2.55
  26  0.444  0.222  0.000-  31 2.55   7 2.55  39 2.55  28 2.55
  27  0.556  0.111  0.438-  30 2.55  54 2.55  46 2.55  25 2.55
  28  0.444  0.222  0.188-  25 2.55   1 2.55  33 2.55  26 2.55
  29  0.556  0.111  0.750-  32 2.55  56 2.55  48 2.55  31 2.55
  30  0.444  0.222  0.500-  27 2.55   3 2.55  35 2.55  32 2.55
  31  0.556  0.111  0.938-  26 2.55  50 2.55  42 2.55  29 2.55
  32  0.444  0.222  0.688-  29 2.55   5 2.55  37 2.55  30 2.55
  33  0.556  0.444  0.250-  28 2.55  60 2.55  36 2.55  35 2.55
  34  0.444  0.556  0.000-  15 2.55  47 2.55  39 2.55  36 2.55
  35  0.556  0.444  0.438-  30 2.55  62 2.55  38 2.55  33 2.55
  36  0.444  0.556  0.188-   9 2.55  41 2.55  33 2.55  34 2.55
  37  0.556  0.444  0.750-  32 2.55  64 2.55  40 2.55  39 2.55
  38  0.444  0.556  0.500-  11 2.55  43 2.55  35 2.55  40 2.55
  39  0.556  0.444  0.938-  26 2.55  58 2.55  34 2.55  37 2.55
  40  0.444  0.556  0.688-  13 2.55  45 2.55  37 2.55  38 2.55
  41  0.556  0.778  0.250-  44 2.55  36 2.55  68 2.55  43 2.55
  42  0.444  0.889  0.000-  47 2.55  23 2.55  31 2.55  44 2.55
  43  0.556  0.778  0.438-  46 2.55  38 2.55  70 2.55  41 2.55
  44  0.444  0.889  0.188-  41 2.55  17 2.55  25 2.55  42 2.55
  45  0.556  0.778  0.750-  48 2.55  40 2.55  72 2.55  47 2.55
  46  0.444  0.889  0.500-  43 2.55  19 2.55  27 2.55  48 2.55
  47  0.556  0.778  0.938-  42 2.55  34 2.55  66 2.55  45 2.55
  48  0.444  0.889  0.688-  45 2.55  21 2.55  29 2.55  46 2.55
  49  0.889  0.111  0.250-  52 2.55   4 2.55  68 2.55  51 2.55
  50  0.778  0.222  0.000-  55 2.55  31 2.55  63 2.55  52 2.55
  51  0.889  0.111  0.438-  54 2.55   6 2.55  70 2.55  49 2.55
  52  0.778  0.222  0.188-  49 2.55  25 2.55  57 2.55  50 2.55
  53  0.889  0.111  0.750-  56 2.55   8 2.55  72 2.55  55 2.55
  54  0.778  0.222  0.500-  51 2.55  27 2.55  59 2.55  56 2.55
  55  0.889  0.111  0.938-  50 2.55   2 2.55  66 2.55  53 2.55
  56  0.778  0.222  0.688-  53 2.55  29 2.55  61 2.55  54 2.55
  57  0.889  0.444  0.250-  52 2.55  60 2.55  12 2.55  59 2.55
  58  0.778  0.556  0.000-  39 2.55  63 2.55  71 2.55  60 2.55
  59  0.889  0.444  0.438-  54 2.55  62 2.55  14 2.55  57 2.55
  60  0.778  0.556  0.188-  33 2.55  57 2.55  65 2.55  58 2.55
  61  0.889  0.444  0.750-  56 2.55  64 2.55  16 2.55  63 2.55
  62  0.778  0.556  0.500-  35 2.55  59 2.55  67 2.55  64 2.55
  63  0.889  0.444  0.938-  50 2.55  58 2.55  10 2.55  61 2.55
  64  0.778  0.556  0.688-  37 2.55  61 2.55  69 2.55  62 2.55
  65  0.889  0.778  0.250-  68 2.55  60 2.55  20 2.55  67 2.55
  66  0.778  0.889  0.000-  71 2.55  47 2.55  55 2.55  68 2.55
  67  0.889  0.778  0.438-  70 2.55  62 2.55  22 2.55  65 2.55
  68  0.778  0.889  0.188-  65 2.55  41 2.55  49 2.55  66 2.55
  69  0.889  0.778  0.750-  72 2.55  64 2.55  24 2.55  71 2.55
  70  0.778  0.889  0.500-  67 2.55  43 2.55  51 2.55  72 2.55
  71  0.889  0.778  0.938-  66 2.55  58 2.55  18 2.55  69 2.55
  72  0.778  0.889  0.688-  69 2.55  45 2.55  53 2.55  70 2.55

  LATTYP: Found a hexagonal cell.
 ALAT       =    12.5065142985
 C/A-ratio  =     1.0841737751

  Lattice vectors:

 A1 = (   6.2532571493, -10.8309590953,   0.0000000000)
 A2 = (   6.2532571493,  10.8309590953,   0.0000000000)
 A3 = (   0.0000000000,   0.0000000000,  13.5592348200)

Analysis of symmetry for initial positions (statically):
 Subroutine PRICEL returns:
 Original cell was already a primitive cell.

 Routine SETGRP: Setting up the symmetry group for a
 hexagonal supercell.

 Subroutine GETGRP returns: Found  1 space group operations
 (whereof  1 operations were pure point group operations)
 out of a pool of 24 trial point group operations.

The static configuration has the point symmetry C_1 .

Analysis of symmetry for dynamics (positions and initial velocities):
 Subroutine PRICEL returns:
 Original cell was already a primitive cell.

 Routine SETGRP: Setting up the symmetry group for a
 hexagonal supercell.

 Subroutine GETGRP returns: Found  1 space group operations
 (whereof  1 operations were pure point group operations)
 out of a pool of 24 trial point group operations.

The dynamic configuration has the point symmetry C_1 .

 Subroutine INISYM returns: Found  1 space group operations
 (whereof  1 operations are pure point group operations),
 and found     1 'primitive' translations

                                     Primitive cell

  volume of cell :    1836.7007

  direct lattice vectors                    reciprocal lattice vectors
     6.253257149-10.830959095  0.000000000     0.079958330 -0.046163963  0.000000000
     6.253257149 10.830959095  0.000000000     0.079958330  0.046163963  0.000000000
     0.000000000  0.000000000 13.559234820     0.000000000  0.000000000  0.073750474

  length of vectors
    12.506514299 12.506514299 13.559234820     0.092327927  0.092327927  0.073750474

  position of ions in fractional coordinates (direct lattice)
     0.222222222  0.111111111  0.250112185
     0.111111111  0.222222222  0.000112185
     0.222222222  0.111111111  0.438387815
     0.111111111  0.222222222  0.188387815
     0.222222222  0.111111111  0.750112185
     0.111111111  0.222222222  0.500112185
     0.222222222  0.111111111  0.938387815
     0.111111111  0.222222222  0.688387815
     0.222222222  0.444444444  0.250112185
     0.111111111  0.555555556  0.000112185
     0.222222222  0.444444444  0.438387815
     0.111111111  0.555555556  0.188387815
     0.222222222  0.444444444  0.750112185
     0.111111111  0.555555556  0.500112185
     0.222222222  0.444444444  0.938387815
     0.111111111  0.555555556  0.688387815
     0.222222222  0.777777778  0.250112185
     0.111111111  0.888888889  0.000112185
     0.222222222  0.777777778  0.438387815
     0.111111111  0.888888889  0.188387815
     0.222222222  0.777777778  0.750112185
     0.111111111  0.888888889  0.500112185
     0.222222222  0.777777778  0.938387815
     0.111111111  0.888888889  0.688387815
     0.555555556  0.111111111  0.250112185
     0.444444444  0.222222222  0.000112185
     0.555555556  0.111111111  0.438387815
     0.444444444  0.222222222  0.188387815
     0.555555556  0.111111111  0.750112185
     0.444444444  0.222222222  0.500112185
     0.555555556  0.111111111  0.938387815
     0.444444444  0.222222222  0.688387815
     0.555555556  0.444444444  0.250112185
     0.444444444  0.555555556  0.000112185
     0.555555556  0.444444444  0.438387815
     0.444444444  0.555555556  0.188387815
     0.555555556  0.444444444  0.750112185
     0.444444444  0.555555556  0.500112185
     0.555555556  0.444444444  0.938387815
     0.444444444  0.555555556  0.688387815
     0.555555556  0.777777778  0.250112185
     0.444444444  0.888888889  0.000112185
     0.555555556  0.777777778  0.438387815
     0.444444444  0.888888889  0.188387815
     0.555555556  0.777777778  0.750112185
     0.444444444  0.888888889  0.500112185
     0.555555556  0.777777778  0.938387815
     0.444444444  0.888888889  0.688387815
     0.888888889  0.111111111  0.250112185
     0.777777778  0.222222222  0.000112185
     0.888888889  0.111111111  0.438387815
     0.777777778  0.222222222  0.188387815
     0.888888889  0.111111111  0.750112185
     0.777777778  0.222222222  0.500112185
     0.888888889  0.111111111  0.938387815
     0.777777778  0.222222222  0.688387815
     0.888888889  0.444444444  0.250112185
     0.777777778  0.555555556  0.000112185
     0.888888889  0.444444444  0.438387815
     0.777777778  0.555555556  0.188387815
[...]
  Fock        0.00000     0.00000     0.00000     0.00000     0.00000     0.00000
  Total      33.23011    49.61067    38.28951     5.39737    -0.38116    -0.26611
  in kB      28.98705    43.27602    33.40043     4.70820    -0.33249    -0.23213

 VOLUME and BASIS-vectors are now :
  energy-cutoff  :      400.00
  volume of cell :     1836.70
      direct lattice vectors                 reciprocal lattice vectors
     6.253257149-10.830959095  0.000000000     0.079958330 -0.046163963  0.000000000
     6.253257149 10.830959095  0.000000000     0.079958330  0.046163963  0.000000000
     0.000000000  0.000000000 13.559234820     0.000000000  0.000000000  0.073750474

  length of vectors
    12.506514299 12.506514299 13.559234820     0.092327927  0.092327927  0.073750474

 FORCES acting on ions
    electron-ion (+dipol)            ewald-force                    non-local-force                 convergence-correction
   0.143E+03 -.518E+02 -.113E+02   -.144E+03 0.517E+02 0.114E+02   0.598E+00 0.164E+00 -.990E-01   0.246E-03 -.474E-03 -.617E-03
   0.315E+03 -.200E+03 0.739E+02   -.314E+03 0.200E+03 -.731E+02   -.182E+01 0.618E+00 -.117E+01   -.269E-02 0.193E-02 0.114E-02
   0.124E+03 -.632E+02 -.320E+02   -.124E+03 0.633E+02 0.318E+02   0.429E+00 -.745E-01 0.240E+00   0.739E-03 -.135E-02 -.111E-02
   0.335E+03 -.212E+03 -.304E+02   -.334E+03 0.212E+03 0.300E+02   -.202E+01 0.679E+00 0.847E+00   -.143E-02 0.179E-02 -.632E-03
   0.697E+02 -.633E+02 -.546E+01   -.700E+02 0.633E+02 0.569E+01   0.254E+00 -.770E-01 -.201E+00   0.127E-03 -.631E-03 0.318E-03
   0.281E+03 -.211E+03 -.683E+01   -.280E+03 0.212E+03 0.749E+01   -.173E+01 0.194E+00 -.106E+01   0.216E-02 -.357E-03 -.110E-02
   0.889E+02 -.518E+02 0.485E+02   -.902E+02 0.517E+02 -.488E+02   0.107E+01 -.929E-02 0.275E+00   -.131E-02 -.107E-03 0.699E-03
   0.261E+03 -.200E+03 -.358E+02   -.260E+03 0.200E+03 0.356E+02   -.230E+01 0.871E-01 0.648E+00   0.185E-02 -.123E-02 0.750E-03
   -.437E+01 -.989E+02 -.478E+02   0.402E+01 0.991E+02 0.485E+02   0.200E+00 -.872E-01 -.659E+00   0.961E-03 0.101E-02 -.585E-04
   0.224E+03 -.164E+03 0.645E+02   -.223E+03 0.164E+03 -.643E+02   -.226E+01 0.746E+00 -.665E+00   0.263E-02 -.215E-02 0.234E-02
   -.123E+03 -.306E+02 -.997E+02   0.122E+03 0.309E+02 0.998E+02   0.167E+01 -.962E+00 0.440E+00   0.145E-02 0.168E-02 -.238E-02
   0.222E+03 -.165E+03 -.321E+02   -.220E+03 0.165E+03 0.318E+02   -.238E+01 0.491E+00 0.782E+00   0.159E-02 -.152E-02 0.112E-02
   -.149E+03 0.163E+02 0.626E+02   0.149E+03 -.159E+02 -.624E+02   0.136E+01 -.106E+01 -.779E+00   0.875E-03 0.357E-04 0.846E-03
   0.194E+03 -.119E+03 -.566E+01   -.193E+03 0.119E+03 0.567E+01   -.167E+01 0.153E+01 -.482E+00   0.101E-02 0.603E-03 -.238E-02
   -.307E+02 -.521E+02 0.852E+02   0.310E+02 0.523E+02 -.859E+02   -.462E+00 -.651E-01 0.675E+00   0.158E-03 0.228E-03 0.132E-02
   0.196E+03 -.118E+03 -.267E+02   -.196E+03 0.117E+03 0.269E+02   -.159E+01 0.128E+01 0.367E+00   0.194E-02 -.210E-03 -.155E-02
   -.497E+02 0.987E+02 0.171E+02   0.487E+02 -.979E+02 -.168E+02   0.205E+01 -.128E+01 -.709E+00   0.251E-02 -.330E-02 0.147E-03
   0.331E+03 -.138E+03 0.558E+02   -.331E+03 0.136E+03 -.555E+02   -.108E+01 0.149E+01 -.813E+00   0.140E-02 -.881E-06 0.456E-03
   -.495E+02 0.122E+03 -.605E+02   0.487E+02 -.121E+03 0.600E+02   0.191E+01 -.128E+01 0.929E+00   0.969E-03 -.221E-02 -.160E-02
   0.331E+03 -.135E+03 -.234E+02   -.331E+03 0.134E+03 0.230E+02   -.115E+01 0.133E+01 0.843E+00   0.252E-02 -.165E-02 -.195E-03
   -.492E+02 0.122E+03 0.416E+02   0.487E+02 -.121E+03 -.410E+02   0.162E+01 -.167E+01 -.102E+01   0.901E-03 -.640E-03 0.462E-03
   0.331E+03 -.135E+03 0.426E+01   -.331E+03 0.134E+03 -.406E+01   -.107E+01 0.157E+01 -.660E+00   -.239E-03 -.189E-02 -.402E-03
   -.495E+02 0.990E+02 0.200E+01   0.487E+02 -.979E+02 -.210E+01   0.183E+01 -.154E+01 0.585E+00   0.197E-02 -.174E-02 0.144E-02
   0.331E+03 -.138E+03 -.366E+02   -.331E+03 0.136E+03 0.366E+02   -.155E+01 0.150E+01 0.606E+00   0.134E-03 -.497E-03 -.240E-03
   -.147E+03 0.377E+03 0.727E+02   0.147E+03 -.377E+03 -.714E+02   0.579E-01 -.660E+00 -.204E+01   -.390E-03 -.410E-02 -.123E-02
   -.300E+03 0.817E+02 0.974E+02   0.300E+03 -.825E+02 -.981E+02   0.136E+01 0.141E+01 -.141E-01   -.215E-02 -.282E-02 0.157E-02
   -.145E+03 0.376E+03 -.105E+03   0.145E+03 -.376E+03 0.104E+03   -.225E-02 -.102E+01 0.192E+01   -.156E-02 -.148E-02 -.348E-02
   -.181E+03 0.150E+03 0.502E+02   0.182E+03 -.151E+03 -.502E+02   -.435E+00 0.528E+00 0.448E-01   -.457E-03 -.237E-02 0.101E-02
   -.172E+03 0.329E+03 0.673E+02   0.172E+03 -.329E+03 -.665E+02   0.294E+00 -.143E+01 -.163E+01   -.124E-02 -.479E-03 0.183E-02
   -.208E+03 0.104E+03 -.875E+02   0.209E+03 -.104E+03 0.876E+02   -.571E+00 0.159E+00 -.218E+00   0.125E-02 -.629E-03 -.108E-02
   -.174E+03 0.331E+03 -.349E+02   0.174E+03 -.331E+03 0.340E+02   0.129E+00 -.156E+01 0.173E+01   -.627E-03 -.361E-02 0.234E-02
   -.327E+03 0.345E+02 -.601E+02   0.327E+03 -.357E+02 0.607E+02   0.102E+01 0.176E+01 0.897E-01   0.718E-03 -.150E-03 -.535E-03
   -.403E+03 0.941E+02 0.275E+02   0.404E+03 -.937E+02 -.258E+02   0.792E+00 -.115E+01 -.198E+01   -.143E-02 0.119E-02 0.225E-02
   -.403E+03 0.928E+02 0.173E+03   0.404E+03 -.937E+02 -.172E+03   0.702E-01 0.695E-01 -.145E+01   0.226E-02 0.415E-02 0.163E-02
   -.403E+03 -.415E+02 -.175E+03   0.404E+03 0.427E+02 0.174E+03   0.120E+00 -.253E+00 0.187E+01   0.129E-02 -.121E-02 -.215E-03
   -.404E+03 -.427E+02 -.253E+02   0.404E+03 0.427E+02 0.241E+02   0.109E+01 0.764E+00 0.154E+01   0.200E-02 0.304E-02 0.107E-02
   -.199E+03 -.192E+02 -.135E+02   0.202E+03 0.214E+02 0.150E+02   -.231E+01 -.145E+01 -.158E+01   0.525E-03 -.111E-03 -.169E-02
   -.201E+03 -.205E+02 -.888E+02   0.202E+03 0.214E+02 0.900E+02   -.692E+00 -.587E+00 -.130E+01   0.254E-02 0.141E-02 -.786E-03
   -.201E+03 0.464E+02 0.870E+02   0.202E+03 -.468E+02 -.891E+02   -.832E+00 0.365E+00 0.199E+01   -.160E-02 0.108E-02 -.593E-03
   -.199E+03 0.455E+02 0.144E+02   0.202E+03 -.468E+02 -.158E+02   -.243E+01 0.106E+01 0.173E+01   0.148E-02 0.210E-03 -.307E-03
   -.162E+03 0.196E+02 -.324E+02   0.163E+03 -.178E+02 0.332E+02   -.106E+01 -.150E+01 -.164E+00   0.313E-03 0.182E-02 0.608E-03
   -.867E+02 0.163E+03 -.189E+02   0.870E+02 -.165E+03 0.199E+02   -.243E+00 0.169E+01 -.192E+00   0.769E-03 -.159E-02 0.175E-02
   -.104E+03 0.521E+02 -.409E+02   0.104E+03 -.519E+02 0.409E+02   -.745E+00 -.879E+00 -.429E+00   0.172E-03 0.110E-02 -.707E-03
   -.866E+02 0.163E+03 0.355E+02   0.858E+02 -.165E+03 -.362E+02   0.746E+00 0.149E+01 -.641E-01   0.765E-03 -.123E-02 -.212E-03
   -.904E+02 0.758E+02 0.222E+02   0.908E+02 -.753E+02 -.222E+02   -.944E+00 -.690E+00 0.107E+00   -.774E-04 0.398E-03 0.654E-03
   -.722E+02 0.186E+03 -.540E+02   0.723E+02 -.188E+03 0.549E+02   0.115E+00 0.166E+01 -.113E+00   -.343E-03 -.209E-02 -.195E-02
   -.148E+03 0.433E+02 0.508E+02   0.150E+03 -.412E+02 -.520E+02   -.154E+01 -.173E+01 0.637E+00   0.225E-02 0.847E-03 0.172E-02
   -.734E+02 0.187E+03 0.386E+02   0.735E+02 -.189E+03 -.386E+02   0.159E+00 0.145E+01 -.403E+00   -.953E-04 -.769E-03 -.305E-03
   0.164E+03 -.673E+02 -.197E+02   -.165E+03 0.682E+02 0.212E+02   0.978E+00 -.779E+00 -.123E+01   -.249E-03 0.139E-02 -.159E-02
   -.222E+02 0.481E+02 0.856E+00   0.244E+02 -.490E+02 0.186E+01   -.161E+01 0.606E+00 -.197E+01   -.179E-02 -.203E-02 0.182E-02
   0.164E+03 -.664E+02 0.383E+01   -.165E+03 0.668E+02 -.494E+01   0.979E+00 -.282E+00 0.883E+00   -.373E-03 0.454E-03 -.242E-02
   -.219E+02 0.597E+02 0.215E+02   0.244E+02 -.606E+02 -.234E+02   -.190E+01 0.559E+00 0.122E+01   -.122E-02 -.807E-03 -.229E-03
   0.164E+03 -.659E+02 -.133E+02   -.165E+03 0.668E+02 0.144E+02   0.650E+00 -.792E+00 -.959E+00   -.331E-03 -.107E-03 0.287E-02
   -.221E+02 0.594E+02 -.312E+02   0.244E+02 -.606E+02 0.329E+02   -.173E+01 0.755E+00 -.822E+00   0.146E-05 0.136E-02 -.190E-02
   0.164E+03 -.674E+02 0.292E+02   -.165E+03 0.682E+02 -.307E+02   0.989E+00 -.585E+00 0.120E+01   -.194E-02 -.115E-03 0.202E-02
   -.221E+02 0.478E+02 0.930E+01   0.244E+02 -.490E+02 -.113E+02   -.178E+01 0.825E+00 0.108E+01   -.891E-03 0.108E-02 0.385E-03
   0.958E+02 -.570E+02 -.143E+02   -.979E+02 0.586E+02 0.163E+02   0.135E+01 -.127E+01 -.957E+00   -.130E-02 -.173E-02 0.121E-02
   -.161E+02 -.255E+02 0.395E+02   0.155E+02 0.261E+02 -.401E+02   0.731E+00 -.521E+00 0.955E+00   0.142E-03 0.565E-03 -.767E-04
   0.949E+02 -.583E+02 -.159E+01   -.967E+02 0.593E+02 -.719E-01   0.108E+01 -.760E+00 0.628E+00   0.394E-03 0.464E-03 -.924E-03
   -.725E+02 0.635E+01 0.317E+02   0.746E+02 -.796E+01 -.341E+02   -.136E+01 0.127E+01 0.128E+01   -.108E-02 -.547E-03 0.233E-02
   0.109E+03 -.824E+02 -.178E+02   -.110E+03 0.827E+02 0.188E+02   0.135E+01 0.310E+00 -.999E+00   0.156E-03 0.944E-03 -.855E-03
   -.588E+02 -.170E+02 -.503E+02   0.611E+02 0.154E+02 0.528E+02   -.176E+01 0.132E+01 -.167E+01   -.367E-03 -.280E-03 0.237E-03
   0.110E+03 -.814E+02 0.335E+02   -.111E+03 0.820E+02 -.351E+02   0.123E+01 -.221E+00 0.136E+01   -.986E-03 -.253E-02 0.107E-03
   -.295E+01 -.493E+02 -.211E+02   0.201E+01 0.495E+02 0.213E+02   0.677E+00 -.455E+00 -.306E+00   -.794E-03 0.762E-03 -.149E-02
   0.128E+03 -.994E+02 -.198E+02   -.130E+03 0.100E+03 0.207E+02   0.127E+01 -.504E+00 -.541E+00   0.916E-03 0.881E-03 0.102E-02
   0.449E+02 -.256E+02 0.210E+02   -.451E+02 0.258E+02 -.215E+02   0.279E+00 -.627E+00 0.887E+00   0.222E-03 0.215E-02 -.146E-03
   0.139E+03 -.105E+03 -.211E+01   -.140E+03 0.106E+03 0.841E+00   0.104E+01 -.954E+00 0.841E+00   -.809E-03 -.388E-03 -.742E-04
   0.347E+02 -.307E+02 0.441E+00   -.350E+02 0.316E+02 -.602E-01   0.602E+00 -.109E+01 -.821E+00   -.155E-03 0.266E-02 -.162E-02
   0.166E+03 -.105E+03 -.172E+02   -.167E+03 0.106E+03 0.179E+02   0.316E+00 -.729E+00 -.732E+00   -.318E-03 -.620E-03 0.330E-03
   0.609E+02 -.312E+02 -.189E+02   -.620E+02 0.316E+02 0.188E+02   0.873E+00 -.258E+00 0.395E+00   -.287E-02 0.117E-02 -.192E-02
   0.156E+03 -.100E+03 0.394E+02   -.157E+03 0.100E+03 -.395E+02   0.231E+00 0.513E-01 0.390E+00   0.179E-02 0.344E-02 -.373E-03
   0.716E+02 -.255E+02 -.317E+01   -.721E+02 0.258E+02 0.278E+01   0.610E+00 -.473E+00 -.748E-01   -.197E-02 0.531E-03 0.697E-03
   0.882E+01 0.155E+01 0.974E+00   0.148E-11 0.153E-11 0.114E-12   -.883E+01 -.154E+01 -.963E+00   0.130E-01 -.114E-01 0.152E-02

 POSITION                                       TOTAL-FORCE (eV/Angst)
      2.08442     -1.20344      3.39133        -0.093036      0.018043     -0.013832
      2.08442      1.20344      0.00152        -1.066321      0.626929     -0.349727
      2.08442     -1.20344      5.94420        -0.035943      0.025202     -0.009353
      2.08442      1.20344      2.55439        -1.022014      0.694787      0.410286
      2.08442     -1.20344     10.17095        -0.113936     -0.096503      0.032634
      2.08442      1.20344      6.78114        -0.969778      0.938524     -0.390754
      2.08442     -1.20344     12.72382        -0.147015     -0.116608     -0.031244
      2.08442      1.20344      9.33401        -0.964950      0.858480      0.474178
      4.16884      2.40688      3.39133        -0.144214      0.061080     -0.000646
      4.16884      4.81376      0.00152        -0.940927      0.794607     -0.420607
      4.16884      2.40688      5.94420         1.182209     -0.676478      0.576481
      4.16884      4.81376      2.55439        -0.920051      0.815615      0.421115
      4.16884      2.40688     10.17095         1.208744     -0.690590     -0.533259
      4.16884      4.81376      6.78114        -1.138680      0.662476     -0.474240
      4.16884      2.40688     12.72382        -0.109574      0.150458     -0.047104
      4.16884      4.81376      9.33401        -1.160115      0.609386      0.548919
      6.25326      6.01720      3.39133         1.019102     -0.563218     -0.452093
      6.25326      8.42408      0.00152        -1.192526      0.377752     -0.515005
      6.25326      6.01720      5.94420         1.072846     -0.528882      0.399151
      6.25326      8.42408      2.55439        -1.158621      0.320364      0.403890
      6.25326      6.01720     10.17095         1.088784     -0.480657     -0.416688
      6.25326      8.42408      6.78114        -1.221378      0.359526     -0.456656
      6.25326      6.01720     12.72382         1.070319     -0.489391      0.486643
      6.25326      8.42408      9.33401        -1.224033      0.396814      0.606577
      4.16884     -4.81376      3.39133        -0.045690     -1.381807     -0.710838
      4.16884     -2.40688      0.00152         1.285953      0.636671     -0.719244
      4.16884     -4.81376      5.94420        -0.067131     -1.392188      0.729142
      4.16884     -2.40688      2.55439        -0.169395     -0.035908      0.085345
      4.16884     -4.81376     10.17095        -0.169825     -1.180456     -0.829324
      4.16884     -2.40688      6.78114        -0.120043     -0.100519     -0.067096
      4.16884     -4.81376     12.72382        -0.140783     -1.233967      0.785024
      4.16884     -2.40688      9.33401         1.281045      0.559374      0.702799
      6.25326     -1.20344      3.39133         1.277936     -0.699672     -0.302392
      6.25326      1.20344      0.00152         1.272975     -0.778582     -0.838260
      6.25326     -1.20344      5.94420         1.334528      0.934564      0.779278
      6.25326      1.20344      2.55439         1.241863      0.828263      0.399707
      6.25326     -1.20344     10.17095         0.503001      0.674309     -0.157038
      6.25326      1.20344      6.78114         0.500576      0.240618     -0.163801
      6.25326     -1.20344     12.72382         0.119654     -0.029170     -0.175780
      6.25326      1.20344      9.33401         0.772753     -0.317448      0.302437
      8.33768      2.40688      3.39133         0.376646      0.279496      0.727610
      8.33768      4.81376      0.00152         0.057404     -0.351373      0.775419
      8.33768      2.40688      5.94420         0.075541     -0.672858     -0.424605
      8.33768      4.81376      2.55439        -0.009821     -0.223152     -0.728550
      8.33768      2.40688     10.17095        -0.501528     -0.209621      0.123444
      8.33768      4.81376      6.78114         0.218480     -0.240780      0.725028
      8.33768      2.40688     12.72382         0.235436      0.321646     -0.526361
      8.33768      4.81376      9.33401         0.315316     -0.340152     -0.440712
      6.25326     -8.42408      3.39133        -0.703514      0.097694      0.234552
      6.25326     -6.01720      0.00152         0.520381     -0.304274      0.742546
      6.25326     -8.42408      5.94420        -0.494260      0.151094     -0.223258
      6.25326     -6.01720      2.55439         0.544032     -0.290414     -0.718471
      6.25326     -8.42408     10.17095        -0.472016      0.114933      0.145226
      6.25326     -6.01720      6.78114         0.520383     -0.391231      0.887956
      6.25326     -8.42408     12.72382        -0.539538      0.219448     -0.241068
      6.25326     -6.01720      9.33401         0.429586     -0.326170     -0.942856
      8.33768     -4.81376      3.39133        -0.701863      0.281308      1.115535
      8.33768     -2.40688      0.00152         0.122852      0.103631      0.411740
      8.33768     -4.81376      5.94420        -0.654381      0.218151     -1.036382
      8.33768     -2.40688      2.55439         0.672997     -0.338798     -1.135939
      8.33768     -4.81376     10.17095        -0.293884      0.523864     -0.010002
      8.33768     -2.40688      6.78114         0.520008     -0.252185      0.848824
      8.33768     -4.81376     12.72382        -0.561364      0.358925     -0.232148
      8.33768     -2.40688      9.33401        -0.263128     -0.251337     -0.100605
     10.42210     -1.20344      3.39133        -0.432406      0.329181      0.390620
     10.42210      1.20344      0.00152         0.053724     -0.404684      0.389004
     10.42210     -1.20344      5.94420        -0.376868      0.389134     -0.426880
     10.42210      1.20344      2.55439         0.266625     -0.095805     -0.441983
     10.42210     -1.20344     10.17095        -0.340929      0.346448     -0.064400
     10.42210      1.20344      6.78114        -0.232731      0.179165      0.264795
     10.42210     -1.20344     12.72382        -0.398501      0.101575      0.299272
     10.42210      1.20344      9.33401         0.151013     -0.114658     -0.455975
    total drift:                                0.000641     -0.000104      0.012492

  FREE ENERGIE OF THE ION-ELECTRON SYSTEM (eV)
  free  energy   TOTEN  =      -156.76795297 eV

  energy  without entropy=     -156.71009723  energy(sigma->0) =     -156.73902510